*MODEL INPUT FILE            B     1     1     1   999     0
*FILES              
MODEL          PTSUB048
FILEX          WAPA9302.PTX                                                                                 
FILEA          WAPA9302.PTA                                                                                 
FILET          WAPA9302.PTT                                                                                 
SPECIES        PTSUB048.SPE C:\DSSAT48\GENOTYPE\                                                            
ECOTYPE        PTSUB048.ECO C:\DSSAT48\GENOTYPE\                                                            
CULTIVAR       PTSUB048.CUL C:\DSSAT48\GENOTYPE\                                                            
PESTS          PTSUB048.PST C:\DSSAT48\PEST\                                                                
SOILS          WA.SOL       C:\DSSAT48\SOIL\                                                                
WEATHERW       WAPA9301.WTH C:\DSSAT48\Weather\                                                             
OUTPUT         OVERVIEW
*SIMULATION CONTROL 
                   1     1     S 1993060  2150 DEFAULT SIMULATION CONTR 
                   Y     Y     N     N     N     N     N     Y     M
                   M     M     E     R     S     C     R     1     G     R     2     D     0
                   R     R     R     R     R
                   N     Y     Y     1     Y     Y     Y     Y     N     N     Y     N     Y
!AUTOMATIC MANAGEM  
                   -99     -99   40.  100.   30.   40.   10.
                 30.   50.  100. GS000 IR001  10.0 1.000
                 30.   50.   25. FE001 GS000
                100.     1   20.
                     0     -99  100.    0.
*EXP.DETAILS        
  1WAPA9302 PT PATERSON, WASHINGTON - 1993                                 
*TREATMENTS         
  1 1 1 0 I1 T1 Russet Burbank     
*CULTIVARS          
   PT IB0003 Russet Burbank  
*FIELDS             
   WAPA9302 WAPA9301   0.0  -99.   -99  -99. 100.0   -99 S      -99. WAPA920016-99.00 -99.0
    -99.0000000000  -99.0000000000   -99.000               1.0  100.   1.0 -99.0   -99   -99
*INITIAL CONDITIONS 
   MZ    1993060   200     0  1.00  1.00 -99.0     0  0.21  0.00   95.   30.
      5. 0.260  3.00  2.00
     15. 0.260  3.00  2.00
     30. 0.304  2.00  1.00
     45. 0.304  1.00 0.500
     60. 0.304  1.00 0.500
*PLANTING DETAILS   
   1993096     -99   4.6   4.6     S     R   86.  -99.  15.0 2576.  -99. -99.0 -99.0  10.0
*IRRIGATION         
   0.950   30.   50.  100. GS000 IR001  10.0
   1993111 IR004   6.4
   1993120 IR004   6.4
   1993131 IR004   6.4
   1993133 IR004   6.4
   1993134 IR004   6.4
   1993137 IR004   6.4
   1993139 IR004   6.4
   1993141 IR004   6.4
   1993142 IR004   6.4
   1993143 IR004   6.4
   1993144 IR004   6.4
   1993145 IR004   6.4
   1993146 IR004   6.4
   1993147 IR004   6.4
   1993148 IR004   6.4
   1993150 IR004   6.4
   1993151 IR004   6.4
   1993153 IR004   6.4
   1993154 IR004   6.4
   1993156 IR004   6.4
   1993157 IR004   6.4
   1993158 IR004   6.4
   1993159 IR004   6.4
   1993160 IR004   6.4
   1993162 IR004   6.4
   1993164 IR004   6.4
   1993165 IR004   6.4
   1993166 IR004   6.4
   1993168 IR004   6.4
   1993169 IR004   6.4
   1993170 IR004  12.7
   1993171 IR004   6.4
   1993172 IR004   6.4
   1993174 IR004   6.4
   1993175 IR004   6.4
   1993176 IR004   6.4
   1993177 IR004   6.4
   1993178 IR004   6.4
   1993179 IR004   6.4
   1993180 IR004   6.4
   1993181 IR004   6.4
   1993182 IR004   6.4
   1993183 IR004   6.4
   1993184 IR004   6.4
   1993185 IR004   6.4
   1993186 IR004   6.4
   1993187 IR004   6.4
   1993188 IR004  12.7
   1993189 IR004   6.4
   1993190 IR004   6.4
   1993192 IR004   6.4
   1993193 IR004   6.4
   1993194 IR004   6.4
   1993196 IR004   6.4
   1993197 IR004   6.4
   1993198 IR004   6.4
   1993199 IR004   6.4
   1993200 IR004   6.4
   1993202 IR004   6.4
   1993203 IR004   6.4
   1993204 IR004   6.4
   1993205 IR004   6.4
   1993206 IR004   6.4
   1993207 IR004   6.4
   1993208 IR004   6.4
   1993209 IR004   6.4
   1993210 IR004   6.4
   1993211 IR004   6.4
   1993213 IR004   6.4
   1993214 IR004   6.4
   1993215 IR004   6.4
   1993216 IR004   6.4
   1993217 IR004   6.4
   1993218 IR004   6.4
   1993219 IR004   6.4
   1993220 IR004   6.4
   1993221 IR004   6.4
   1993223 IR004   6.4
   1993224 IR004   6.4
   1993225 IR004   6.4
   1993226 IR004   6.4
   1993228 IR004   6.4
   1993230 IR004   6.4
   1993231 IR004   6.4
   1993232 IR004   6.4
   1993233 IR004   6.4
   1993234 IR004   6.4
   1993235 IR004   6.4
   1993236 IR004   6.4
   1993239 IR004   6.4
   1993242 IR004   6.4
   1993244 IR004   6.4
   1993246 IR004   6.4
*FERTILIZERS        
   1993096 FE005 AP002   15.  112.  -99.  -99.  -99.  -99.   -99
   1993147 FE005 AP005   15.   31.  -99.  -99.  -99.  -99.   -99
   1993153 FE005 AP005   15.   31.  -99.  -99.  -99.  -99.   -99
   1993160 FE005 AP005   15.   31.  -99.  -99.  -99.  -99.   -99
   1993168 FE005 AP005   15.   31.  -99.  -99.  -99.  -99.   -99
   1993175 FE005 AP005   15.   31.  -99.  -99.  -99.  -99.   -99
   1993182 FE005 AP005   15.   31.  -99.  -99.  -99.  -99.   -99
   1993189 FE005 AP005   15.   31.  -99.  -99.  -99.  -99.   -99
   1993196 FE005 AP005   15.   31.  -99.  -99.  -99.  -99.   -99
   1993203 FE005 AP005   15.   31.  -99.  -99.  -99.  -99.   -99
   1993211 FE005 AP005   15.   31.  -99.  -99.  -99.  -99.   -99
   1993217 FE005 AP005   15.   31.  -99.  -99.  -99.  -99.   -99
   1993224 FE005 AP005   15.   31.  -99.  -99.  -99.  -99.   -99
   1993231 FE005 AP005   15.   31.  -99.  -99.  -99.  -99.   -99
*RESIDUES           
   1993060 RE203  1500  1.06  0.23  1.75  100.   15. AP002
*CHEMICALS          
*TILLAGE            
   1993074 TI011  15.0
   1993078 TI025  15.0
   1993096 TI033  15.0
   1993103 TI013  15.0
   1993112 TI026  15.0
*ENVIRONMENT        
*HARVEST            
   1993228 GS000   -99   -99  100.    0.
*SOIL               
 WAPA920016  -99         S      -99.   Quincy Sand                                     
 Paterson    USA          45.830-119.870 Fine sand                                         
 BN     0.13   6.2  0.80   64.  1.00  1.00 IB001 IB001 IB001 -99  
    5.       0.050 0.150 0.300 1.000  21.0  1.55 0.500 -99.0 -99.0 -99.0  -9.0  7.60-99.00-99.00-99.00
   15.       0.050 0.150 0.300 1.000  21.0  1.55 0.500 -99.0 -99.0 -99.0  -9.0  7.60-99.00-99.00-99.00
   30.       0.050 0.150 0.300 0.640  21.0  1.55 0.500 -99.0 -99.0 -99.0  -9.0  8.00-99.00-99.00-99.00
   45.       0.050 0.150 0.300 0.410  21.0  1.55 0.500 -99.0 -99.0 -99.0  -9.0  8.30-99.00-99.00-99.00
   60.       0.050 0.150 0.300 0.410  21.0  1.55 0.500 -99.0 -99.0 -99.0  -9.0  8.30-99.00-99.00-99.00
                    
    5.-99.00 -99.0 -99.0 -99.0 -99.0 -99.0 -99.0 -99.0 -99.0 -99.0-99.00 -99.0 -99.0 -99.0 -99.0 -99.0  -99.  -99.
   15.-99.00 -99.0 -99.0 -99.0 -99.0 -99.0 -99.0 -99.0 -99.0 -99.0-99.00 -99.0 -99.0 -99.0 -99.0 -99.0  -99.  -99.
   30.-99.00 -99.0 -99.0 -99.0 -99.0 -99.0 -99.0 -99.0 -99.0 -99.0-99.00 -99.0 -99.0 -99.0 -99.0 -99.0  -99.  -99.
   45.-99.00 -99.0 -99.0 -99.0 -99.0 -99.0 -99.0 -99.0 -99.0 -99.0-99.00 -99.0 -99.0 -99.0 -99.0 -99.0  -99.  -99.
   60.-99.00 -99.0 -99.0 -99.0 -99.0 -99.0 -99.0 -99.0 -99.0 -99.0-99.00 -99.0 -99.0 -99.0 -99.0 -99.0  -99.  -99.
                    
    5.-99.00-99.00-99.00-99.00
   15.-99.00-99.00-99.00-99.00
   30.-99.00-99.00-99.00-99.00
   45.-99.00-99.00-99.00-99.00
   60.-99.00-99.00-99.00-99.00
*CULTIVAR           
IB0003 Russet Burbank   IB0001  1522.  21.6   0.5   0.3  18.8
