*MODEL INPUT FILE            B     1     1     1   999     0
*FILES              
MODEL          BSCER048
FILEX          NDCR1401.BSX                                                                                 
FILEA          NDCR1401.BSA                                                                                 
FILET          NDCR1401.BST                                                                                 
SPECIES        BSCER048.SPE C:\DSSAT48\GENOTYPE\                                                            
ECOTYPE        BSCER048.ECO C:\DSSAT48\GENOTYPE\                                                            
CULTIVAR       BSCER048.CUL C:\DSSAT48\GENOTYPE\                                                            
PESTS          BSCER048.PST C:\DSSAT48\PEST\                                                                
SOILS          CR.SOL       C:\DSSAT48\SOIL\                                                                
WEATHERW       CRND1401.WTH C:\DSSAT48\Weather\                                                             
OUTPUT         OVERVIEW
*SIMULATION CONTROL 
                   1     1     S 2014147  2150 DEFAULT SIMULATION CONTR 
                   Y     Y     N     N     N     N     N     N     M
                   M     M     E     R     S     C     R     1     G     R     2     D     0
                   R     R     R     R     R
                   N     Y     Y     1     Y     Y     Y     Y     Y     N     Y     N     Y
!AUTOMATIC MANAGEM  
                   -99     -99   40.  100.   30.   40.   10.
                 30.   50.  100. GS000 IR001  10.0 1.000
                 30.   50.   25. FE001 GS000
                100.     1   20.
                     0     -99  100.    0.
*EXP.DETAILS        
  1NDCR1401 BS CREC, NORTH DAKOTA 2014                                     
*TREATMENTS         
  1 1 1 0 CREC 2014                
*CULTIVARS          
   BS CR0001 SVRR1142E       
*FIELDS             
   crec0001 CRND1401   0.0  -99.   -99  -99. 100.0 00000 -99    -99. CREC002014-99.00 -99.0
    -99.0000000000  -99.0000000000   -99.000               1.0  100.   1.0 -99.0   -99   -99
*INITIAL CONDITIONS 
               0     0     0  1.00  1.00 -99.0     0  0.00  0.00  100.    0.
      5. 0.300   0.0   0.0
     15. 0.300   0.0   0.0
     18. 0.300   0.0   0.0
     31. 0.300   0.0   0.0
     46. 0.300   0.0   0.0
     56. 0.310   0.0   0.0
     66. 0.310   0.0   0.0
     91. 0.310   0.0   0.0
    111. 0.229   0.0   0.0
    132. 0.229   0.0   0.0
    152. 0.229   0.0   0.0
*PLANTING DETAILS   
   2014147     -99   8.0   7.4     S     R   50.  -99.   3.0  -99.  -99. -99.0 -99.0 -99.0
*IRRIGATION         
   1.000    0.    0.    0. GS000 IR001   0.0
*FERTILIZERS        
*RESIDUES           
*CHEMICALS          
*TILLAGE            
*ENVIRONMENT        
*HARVEST            
   2014290 GS000     H     A  100.  100.
*SOIL               
 CREC002014  -99         -99    -99.   CREC soil                                       
 CREC        US           47.449 -99.124 -99                                               
 -99    0.09   9.8  0.40   84.  0.50  1.00 IB001 IB001 IB001 -99  
    5.       0.110 0.300 0.361 1.000  3.30  1.45 2.030 -99.0 -99.0 -99.0  -9.0  6.40-99.00-99.00-99.00
   15.       0.110 0.300 0.361 1.000  3.30  1.45 2.030 -99.0 -99.0 -99.0  -9.0  6.40-99.00-99.00-99.00
   18.       0.110 0.300 0.361 1.000  3.30  1.45 2.030 -99.0 -99.0 -99.0  -9.0  6.40-99.00-99.00-99.00
   31.       0.110 0.300 0.361 1.000  3.30  1.45 2.030 -99.0 -99.0 -99.0  -9.0  6.40-99.00-99.00-99.00
   46.       0.110 0.300 0.361 1.000  3.30  1.45 2.030 -99.0 -99.0 -99.0  -9.0  6.40-99.00-99.00-99.00
   56.       0.129 0.310 0.371 1.000  3.30  1.60 0.440 -99.0 -99.0 -99.0  -9.0  6.70-99.00-99.00-99.00
   66.       0.129 0.310 0.371 1.000  3.30  1.60 0.440 -99.0 -99.0 -99.0  -9.0  6.70-99.00-99.00-99.00
   91.       0.129 0.310 0.371 0.500  3.30  1.60 0.440 -99.0 -99.0 -99.0  -9.0  6.70-99.00-99.00-99.00
  111.       0.107 0.229 0.369 0.500  3.30  1.60 0.150 -99.0 -99.0 -99.0  -9.0  7.90-99.00-99.00-99.00
  132.       0.107 0.229 0.369 0.500  3.30  1.60 0.150 -99.0 -99.0 -99.0  -9.0  7.90-99.00-99.00-99.00
  152.       0.107 0.229 0.369 0.500  3.30  1.60 0.150 -99.0 -99.0 -99.0  -9.0  7.90-99.00-99.00-99.00
                    
    5.-99.00 -99.0 -99.0 -99.0 -99.0 -99.0 -99.0 -99.0 -99.0 -99.0-99.00 -99.0 -99.0 -99.0 -99.0 -99.0  -99.  -99.
   15.-99.00 -99.0 -99.0 -99.0 -99.0 -99.0 -99.0 -99.0 -99.0 -99.0-99.00 -99.0 -99.0 -99.0 -99.0 -99.0  -99.  -99.
   18.-99.00 -99.0 -99.0 -99.0 -99.0 -99.0 -99.0 -99.0 -99.0 -99.0-99.00 -99.0 -99.0 -99.0 -99.0 -99.0  -99.  -99.
   31.-99.00 -99.0 -99.0 -99.0 -99.0 -99.0 -99.0 -99.0 -99.0 -99.0-99.00 -99.0 -99.0 -99.0 -99.0 -99.0  -99.  -99.
   46.-99.00 -99.0 -99.0 -99.0 -99.0 -99.0 -99.0 -99.0 -99.0 -99.0-99.00 -99.0 -99.0 -99.0 -99.0 -99.0  -99.  -99.
   56.-99.00 -99.0 -99.0 -99.0 -99.0 -99.0 -99.0 -99.0 -99.0 -99.0-99.00 -99.0 -99.0 -99.0 -99.0 -99.0  -99.  -99.
   66.-99.00 -99.0 -99.0 -99.0 -99.0 -99.0 -99.0 -99.0 -99.0 -99.0-99.00 -99.0 -99.0 -99.0 -99.0 -99.0  -99.  -99.
   91.-99.00 -99.0 -99.0 -99.0 -99.0 -99.0 -99.0 -99.0 -99.0 -99.0-99.00 -99.0 -99.0 -99.0 -99.0 -99.0  -99.  -99.
  111.-99.00 -99.0 -99.0 -99.0 -99.0 -99.0 -99.0 -99.0 -99.0 -99.0-99.00 -99.0 -99.0 -99.0 -99.0 -99.0  -99.  -99.
  132.-99.00 -99.0 -99.0 -99.0 -99.0 -99.0 -99.0 -99.0 -99.0 -99.0-99.00 -99.0 -99.0 -99.0 -99.0 -99.0  -99.  -99.
  152.-99.00 -99.0 -99.0 -99.0 -99.0 -99.0 -99.0 -99.0 -99.0 -99.0-99.00 -99.0 -99.0 -99.0 -99.0 -99.0  -99.  -99.
                    
    5.-99.00-99.00-99.00-99.00
   15.-99.00-99.00-99.00-99.00
   18.-99.00-99.00-99.00-99.00
   31.-99.00-99.00-99.00-99.00
   46.-99.00-99.00-99.00-99.00
   56.-99.00-99.00-99.00-99.00
   66.-99.00-99.00-99.00-99.00
   91.-99.00-99.00-99.00-99.00
  111.-99.00-99.00-99.00-99.00
  132.-99.00-99.00-99.00-99.00
  152.-99.00-99.00-99.00-99.00
*CULTIVAR           
CR0001 SVRR1142E        IB0001  940.0 0.000 700.0 220.0 37.50 42.00  0.00  0.00  0.00
