*MODEL INPUT FILE            B     1     1     1   999     0
*FILES              
MODEL          CRGRO048
FILEX          CORD8601.FBX                                                                                 
FILEA          CORD8601.FBA                                                                                 
FILET          CORD8601.FBT                                                                                 
SPECIES        FBGRO048.SPE C:\DSSAT48\GENOTYPE\                                                            
ECOTYPE        FBGRO048.ECO C:\DSSAT48\GENOTYPE\                                                            
CULTIVAR       FBGRO048.CUL C:\DSSAT48\GENOTYPE\                                                            
PESTS          FBGRO048.PST C:\DSSAT48\PEST\                                                                
SOILS          CO.SOL       C:\DSSAT48\SOIL\                                                                
WEATHERW       CORD8601.WTH C:\DSSAT48\Weather\                                                             
OUTPUT         OVERVIEW
*SIMULATION CONTROL 
                   1     1     S 1986344  2150 DEFAULT SIMULATION CONTR 
                   Y     Y     Y     N     N     N     N     N     M
                   M     M     E     R     S     L     R     1     G     R     3     D     0
                   R     R     R     N     M
                   N     Y     Y     1     Y     Y     Y     Y     N     N     Y     N     N
!AUTOMATIC MANAGEM  
                   -99     -99   40.  100.   30.   40.   10.
                 30.   50.  100. GS000 IR001  10.0 1.000
                 30.   50.   25. FE001 GS000
                100.     1   20.
                     0     -99  100.    0.
*EXP.DETAILS        
  1CORD8601 FB 1986 FABABEAN, IRRIGATED, +N; N2                            
*TREATMENTS         
  1 0 0 0 86 R IR N2 FIX, ALAMEDA  
*CULTIVARS          
   FB CORD01 ALAME LD170 1.2g
*FIELDS             
   LUGO0001 CORD8601   0.0    0.     0    0. 100.0    0S LO     200. CORD860001-99.00 -99.0
      0.0000000000    0.0000000000    90.000               1.0  100.   1.0   0.0   -99   -99
*INITIAL CONDITIONS 
   99        -99     0     0  1.00  1.00 -99.0     0  0.00  0.00  100.   15.
      5. 0.190  1.00  10.6
     15. 0.200  1.00  7.40
     45. 0.150 0.200  1.30
     75. 0.130 0.200  1.10
    105. 0.160 0.200  1.10
    135. 0.090 0.200  1.10
    165. 0.080 0.200  1.10
    195. 0.130 0.200  1.10
*PLANTING DETAILS   
   1986344     -99  18.0  18.0     S     R   70.   90.   2.5  -99.  -99. -99.0 -99.0   0.0
*IRRIGATION         
   1.000   30.   75.  -99. GS000 IR001   0.0
   1987075 IR005  46.4
   1987089 IR005  39.7
   1987110 IR005  57.6
   1987124 IR005  58.5
   1987128 IR005  36.8
*FERTILIZERS        
*RESIDUES           
*CHEMICALS          
*TILLAGE            
*ENVIRONMENT        
*HARVEST            
*SOIL               
 CORD860001  SPAIN       LO     200. DEFAULT - DEEP SANDY LOAM                         
 Generic     Generic      -0.099  -0.099 Generic                                           
 -99    0.21   6.0  0.60   60.  1.00  1.00 IB001 IB001 IB001 -99  
    5.       0.070 0.270 0.390 1.000  -99.  1.61 0.700  10.0  30.0   0.0 0.070  7.10-99.00-99.00  0.00
   15.       0.070 0.270 0.390 1.000  -99.  1.61 0.700  10.0  30.0   0.0 0.070  7.10-99.00-99.00  0.00
   45.       0.070 0.250 0.350 0.600  -99.  1.61 0.580  10.0  30.0   0.0 0.058  7.10-99.00-99.00  0.00
   75.       0.070 0.220 0.320 0.300  -99.  1.61 0.580  10.0  30.0   0.0 0.058  7.10-99.00-99.00  0.00
  105.       0.070 0.200 0.300 0.220  -99.  1.61 0.430  10.0  30.0   0.0 0.043  7.10-99.00-99.00  0.00
  135.       0.070 0.195 0.285 0.220  -99.  1.62 0.260  10.0  30.0   0.0 0.026  7.10-99.00-99.00  0.00
  165.       0.070 0.180 0.280 0.220  -99.  1.62 0.120  10.0  30.0   0.0 0.012  7.10-99.00-99.00  0.00
  195.       0.070 0.220 0.310 0.220  -99.  1.62 0.040  10.0  30.0   0.0 0.004  7.10-99.00-99.00  0.00
                    
    5.-99.00 -99.0 -99.0 -99.0 -99.0 -99.0 -99.0 -99.0 -99.0 -99.0-99.00 -99.0 -99.0 -99.0 -99.0 -99.0  -99.  -99.
   15.-99.00 -99.0 -99.0 -99.0 -99.0 -99.0 -99.0 -99.0 -99.0 -99.0-99.00 -99.0 -99.0 -99.0 -99.0 -99.0  -99.  -99.
   45.-99.00 -99.0 -99.0 -99.0 -99.0 -99.0 -99.0 -99.0 -99.0 -99.0-99.00 -99.0 -99.0 -99.0 -99.0 -99.0  -99.  -99.
   75.-99.00 -99.0 -99.0 -99.0 -99.0 -99.0 -99.0 -99.0 -99.0 -99.0-99.00 -99.0 -99.0 -99.0 -99.0 -99.0  -99.  -99.
  105.-99.00 -99.0 -99.0 -99.0 -99.0 -99.0 -99.0 -99.0 -99.0 -99.0-99.00 -99.0 -99.0 -99.0 -99.0 -99.0  -99.  -99.
  135.-99.00 -99.0 -99.0 -99.0 -99.0 -99.0 -99.0 -99.0 -99.0 -99.0-99.00 -99.0 -99.0 -99.0 -99.0 -99.0  -99.  -99.
  165.-99.00 -99.0 -99.0 -99.0 -99.0 -99.0 -99.0 -99.0 -99.0 -99.0-99.00 -99.0 -99.0 -99.0 -99.0 -99.0  -99.  -99.
  195.-99.00 -99.0 -99.0 -99.0 -99.0 -99.0 -99.0 -99.0 -99.0 -99.0-99.00 -99.0 -99.0 -99.0 -99.0 -99.0  -99.  -99.
                    
    5.-99.00-99.00-99.00-99.00
   15.-99.00-99.00-99.00-99.00
   45.-99.00-99.00-99.00-99.00
   75.-99.00-99.00-99.00-99.00
  105.-99.00-99.00-99.00-99.00
  135.-99.00-99.00-99.00-99.00
  165.-99.00-99.00-99.00-99.00
  195.-99.00-99.00-99.00-99.00
*CULTIVAR           
CORD01 ALAME LD170 1.2g FABLON 24.00-0.031 18.00 10.90 24.00 34.50 48.00 1.000 285.0 110.0  1.00 1.100 21.00  2.40 18.00  77.0 0.315 0.020
