*MODEL INPUT FILE            B     1     1     1   999     0
*FILES              
MODEL          CRGRO048
FILEX          BRKS1107.LTX                                                                                 
FILEA          BRKS1107.LTA                                                                                 
FILET          BRKS1107.LTT                                                                                 
SPECIES        LTGRO048.SPE C:\DSSAT48\GENOTYPE\                                                            
ECOTYPE        LTGRO048.ECO C:\DSSAT48\GENOTYPE\                                                            
CULTIVAR       LTGRO048.CUL C:\DSSAT48\GENOTYPE\                                                            
PESTS          LTGRO048.PST C:\DSSAT48\PEST\                                                                
SOILS          CA.SOL       C:\DSSAT48\SOIL\                                                                
WEATHERW       BRKS1109.WTH C:\DSSAT48\Weather\                                                             
OUTPUT         OVERVIEW
*SIMULATION CONTROL 
                   1     1     S 2011001  2150 2006 SIMULATION          
                   Y     Y     Y     N     N     N     N     N     M
                   M     M     E     R     S     L     R     1     P     R     1     D     0
                   R     R     R     Y     M
                   N     Y     Y     1     Y     Y     Y     Y     N     N     Y     N     N
!AUTOMATIC MANAGEM  
                   -99     -99   40.  100.   30.   40.   10.
                 30.   50.  100. GS000 IR001  10.0 1.000
                 30.   50.   25. FE001 GS000
                100.     1   20.
                     0     -99  100.    0.
*EXP.DETAILS        
  1BRKS1107 LT RAINFED LENTIL AT SWIFT CURRENT - SEVEN YEAR STUDY          
*TREATMENTS         
  1 0 0 0 Rotated Maxim 2011       
*CULTIVARS          
   LT CAND04 CDC Maximim     
*FIELDS             
   SWCO0001 BRKS1109   0.0    0.   -99    0. 100.0    0S SIL    150. CAAB000001-99.00 -99.0
   -107.3000030518   50.2799987793    90.000               1.0  100.   1.0   0.0 FH101   -99
*INITIAL CONDITIONS 
   WH    2011001   900     0  1.00  1.00 -99.0  4000  1.00  0.00   10.   15.
      5. 0.300  1.00  10.6
     15. 0.300  1.00  9.00
     30. 0.300 0.467  3.33
     45. 0.297 0.200  1.10
     60. 0.283 0.200  1.10
     90. 0.300 0.200  1.10
    120. 0.300 0.200  1.10
*PLANTING DETAILS   
   2011122     -99 120.0 120.0     S     R   25.  -99.   3.0  -99.  -99. -99.0 -99.0   0.0
*IRRIGATION         
   1.000    0.    0.    0. GS000 IR001   0.0
*FERTILIZERS        
   2011122 FE005 AP002    0.    4.    0.    0.    0.    0.   -99
*RESIDUES           
*CHEMICALS          
*TILLAGE            
*ENVIRONMENT        
*HARVEST            
*SOIL               
 CAAB000001  AB CYG    A SIL    150.   CYGNET                                          
 AB CYG    A Canada       -0.009  -0.099 CH  BLC  E                                        
 -99    0.13  10.0  0.70   74.  1.00  1.00 IB001 IB001 IB001 -99  
    5.       0.105 0.302 0.488 1.000  1.32  1.20 1.000  22.0  32.0   5.0  -9.0  7.00  6.20 30.00-99.00
   15.       0.105 0.302 0.488 1.000  1.32  1.20 1.000  22.0  32.0   5.0  -9.0  7.00  6.20 30.00-99.00
   30.       0.116 0.312 0.488 0.920  1.32  1.20 1.000  26.0  30.4   5.0  -9.0  7.00  5.88 24.40-99.00
   45.       0.114 0.296 0.489 0.423  1.32  1.20 0.800  25.0  31.0   5.0  -9.0  7.00  5.50 19.00-99.00
   60.       0.114 0.292 0.489 0.360  1.08  1.20 0.800  24.5  29.1   5.0  -9.0  7.00  5.61 19.27-99.00
   90.       0.115 0.282 0.489 0.186 0.430  1.20 0.800  23.0  24.0   5.0  -9.0  7.00  5.90 20.00-99.00
  120.       0.115 0.288 0.489 0.163 0.667  1.20 0.800  23.0  26.9   5.0  -9.0  7.00  6.19 20.27-99.00
                    
    5.-99.00 -99.0 -99.0 -99.0 -99.0 -99.0 -99.0 -99.0 -99.0 -99.0-99.00 -99.0 -99.0 -99.0 -99.0 -99.0  -99.  -99.
   15.-99.00 -99.0 -99.0 -99.0 -99.0 -99.0 -99.0 -99.0 -99.0 -99.0-99.00 -99.0 -99.0 -99.0 -99.0 -99.0  -99.  -99.
   30.-99.00 -99.0 -99.0 -99.0 -99.0 -99.0 -99.0 -99.0 -99.0 -99.0-99.00 -99.0 -99.0 -99.0 -99.0 -99.0  -99.  -99.
   45.-99.00 -99.0 -99.0 -99.0 -99.0 -99.0 -99.0 -99.0 -99.0 -99.0-99.00 -99.0 -99.0 -99.0 -99.0 -99.0  -99.  -99.
   60.-99.00 -99.0 -99.0 -99.0 -99.0 -99.0 -99.0 -99.0 -99.0 -99.0-99.00 -99.0 -99.0 -99.0 -99.0 -99.0  -99.  -99.
   90.-99.00 -99.0 -99.0 -99.0 -99.0 -99.0 -99.0 -99.0 -99.0 -99.0-99.00 -99.0 -99.0 -99.0 -99.0 -99.0  -99.  -99.
  120.-99.00 -99.0 -99.0 -99.0 -99.0 -99.0 -99.0 -99.0 -99.0 -99.0-99.00 -99.0 -99.0 -99.0 -99.0 -99.0  -99.  -99.
                    
    5.-99.00-99.00-99.00-99.00
   15.-99.00-99.00-99.00-99.00
   30.-99.00-99.00-99.00-99.00
   45.-99.00-99.00-99.00-99.00
   60.-99.00-99.00-99.00-99.00
   90.-99.00-99.00-99.00-99.00
  120.-99.00-99.00-99.00-99.00
*CULTIVAR           
CAND04 CDC Maximim      LAT001 15.80-0.110 26.50  7.50 10.00 21.00 20.00 1.000 220.0  70.0  1.00 0.044 20.00  1.30 14.00  69.0 0.286 0.020
