*MODEL INPUT FILE            B     1     1     1   999     0
*FILES              
MODEL          CRGRO048
FILEX          AUTA8101.SUX                                                                                 
FILEA          AUTA8101.SUA                                                                                 
FILET          AUTA8101.SUT                                                                                 
SPECIES        SUGRO048.SPE C:\DSSAT48\GENOTYPE\                                                            
ECOTYPE        SUGRO048.ECO C:\DSSAT48\GENOTYPE\                                                            
CULTIVAR       SUGRO048.CUL C:\DSSAT48\GENOTYPE\                                                            
PESTS          SUGRO048.PST C:\DSSAT48\PEST\                                                                
SOILS          SOIL.SOL     C:\DSSAT48\SOIL\                                                                
WEATHERW       AUTA8101.WTH C:\DSSAT48\Weather\                                                             
OUTPUT         OVERVIEW
*SIMULATION CONTROL 
                   1     1     S 1981330  2150 DEFAULT SIMULATION CONTR 
                   Y     Y     N     N     N     N     N     Y     M
                   M     M     E     R     S     L     R     1     G     R     2     D     0
                   R     D     R     R     M
                   N     Y     Y     1     Y     Y     Y     Y     Y     N     Y     N     Y
!AUTOMATIC MANAGEM  
                   -99     -99   40.  100.   30.   40.   10.
                 30.   50.  100. GS000 IR001  10.0 1.000
                 30.   50.   25. FE001 GS000
                100.     1   20.
                     0     -99  100.    0.
*EXP.DETAILS        
  1AUTA8101 SU TATURA 1981/82, CONNOR ET AL 1985                           
*TREATMENTS         
  1 1 1 0 T7, 7-d interval         
*CULTIVARS          
   SU IB0019 Sungold         
*FIELDS             
   TAAU8101 AUTA8101   0.0  -99.   -99  -99. 100.0   -99 SL     -99. AUTA810001-99.00 -99.0
    -99.0000000000  -99.0000000000   -99.000               1.0  100.   1.0 -99.0   -99   -99
*INITIAL CONDITIONS 
   WH    1981330   500     0  1.00  1.00 -99.0     0  0.00  0.00  100.    0.
      5. 0.210 0.600  5.10
     15. 0.210 0.600  5.10
     20. 0.210 0.600  5.10
     30. 0.400 0.600  5.10
     40. 0.400 0.600  5.10
     50. 0.340 0.600  5.10
     60. 0.340 0.600  5.10
     70. 0.340 0.600  5.10
     80. 0.340 0.600  5.10
    100. 0.340 0.600  5.10
    120. 0.270 0.600  5.10
    140. 0.270 0.600  5.10
    160. 0.270 0.600  5.10
    180. 0.270 0.600  5.10
    200. 0.090 0.600  5.10
*PLANTING DETAILS   
   1981339 1981348   5.3   5.3     S     R   70.    0.   4.0  -99.  -99. -99.0 -99.0 -99.0
*IRRIGATION         
   1.000   30.   50.  100. GS000 IR001  10.0
        21 IR005  36.0
        28 IR005  36.0
        35 IR005  36.0
        42 IR005  36.0
        49 IR005  36.0
        63 IR005  45.0
        70 IR005  45.0
        77 IR005  70.0
        84 IR005  70.0
        91 IR005  33.0
        98 IR005  33.0
       105 IR005  33.0
*FERTILIZERS        
   1981338 FE001 AP002    2.  100.  -99.  -99.  -99.  -99.   -99
*RESIDUES           
*CHEMICALS          
*TILLAGE            
*ENVIRONMENT        
*HARVEST            
*SOIL               
 AUTA810001  CSIRO       SL     -99.   Red sodosol                                     
 Tatura      Australia    36.200 145.140 Red brown earth                                   
 R      0.13   6.0  0.10   80.  1.00  1.00 IB001 IB001 IB001 -99  
    5.       0.230 0.455 0.505 1.000 0.230  1.30 1.030  35.0  30.0 -99.0  -9.0  8.20-99.00-99.00-99.00
   15.       0.230 0.455 0.505 1.000 0.230  1.30 1.030  35.0  30.0 -99.0  -9.0  8.20-99.00-99.00-99.00
   20.       0.230 0.455 0.505 1.000 0.230  1.30 1.030  35.0  30.0 -99.0  -9.0  8.20-99.00-99.00-99.00
   30.       0.240 0.490 0.540 0.549 0.230  1.30 0.860  35.0  30.0 -99.0  -9.0  8.50-99.00-99.00-99.00
   40.       0.240 0.490 0.540 0.549 0.230  1.30 0.860  35.0  30.0 -99.0  -9.0  8.50-99.00-99.00-99.00
   50.       0.240 0.490 0.540 0.368 0.230  1.29 0.770  35.0  30.0 -99.0  -9.0  8.60-99.00-99.00-99.00
   60.       0.240 0.490 0.540 0.368 0.230  1.29 0.770  35.0  30.0 -99.0  -9.0  8.60-99.00-99.00-99.00
   70.       0.250 0.500 0.550 0.247 0.230  1.31 0.650  35.0  30.0 -99.0  -9.0  8.60-99.00-99.00-99.00
   80.       0.250 0.500 0.550 0.247 0.230  1.31 0.650  35.0  30.0 -99.0  -9.0  8.60-99.00-99.00-99.00
  100.       0.270 0.420 0.470 0.165 0.230  1.35 0.540  35.0  30.0 -99.0  -9.0  7.40-99.00-99.00-99.00
  120.       0.310 0.385 0.435 0.111 0.230  1.36 0.480  35.0  30.0 -99.0  -9.0  5.30-99.00-99.00-99.00
  140.       0.380 0.430 0.480 0.074 0.230  1.36 0.430  35.0  30.0 -99.0  -9.0  5.00-99.00-99.00-99.00
  160.       0.380 0.405 0.455 0.050 0.230  1.36 0.430  35.0  30.0 -99.0  -9.0  5.00-99.00-99.00-99.00
  180.       0.380 0.405 0.455 0.033 0.230  1.36 0.430  35.0  30.0 -99.0  -9.0  5.00-99.00-99.00-99.00
  200.       0.370 0.380 0.430 0.022 0.230  1.36 0.430  35.0  30.0 -99.0  -9.0  5.00-99.00-99.00-99.00
                    
    5.-99.00 -99.0 -99.0 -99.0 -99.0 -99.0 -99.0 -99.0 -99.0 -99.0-99.00 -99.0 -99.0 -99.0 -99.0 -99.0  -99.  -99.
   15.-99.00 -99.0 -99.0 -99.0 -99.0 -99.0 -99.0 -99.0 -99.0 -99.0-99.00 -99.0 -99.0 -99.0 -99.0 -99.0  -99.  -99.
   20.-99.00 -99.0 -99.0 -99.0 -99.0 -99.0 -99.0 -99.0 -99.0 -99.0-99.00 -99.0 -99.0 -99.0 -99.0 -99.0  -99.  -99.
   30.-99.00 -99.0 -99.0 -99.0 -99.0 -99.0 -99.0 -99.0 -99.0 -99.0-99.00 -99.0 -99.0 -99.0 -99.0 -99.0  -99.  -99.
   40.-99.00 -99.0 -99.0 -99.0 -99.0 -99.0 -99.0 -99.0 -99.0 -99.0-99.00 -99.0 -99.0 -99.0 -99.0 -99.0  -99.  -99.
   50.-99.00 -99.0 -99.0 -99.0 -99.0 -99.0 -99.0 -99.0 -99.0 -99.0-99.00 -99.0 -99.0 -99.0 -99.0 -99.0  -99.  -99.
   60.-99.00 -99.0 -99.0 -99.0 -99.0 -99.0 -99.0 -99.0 -99.0 -99.0-99.00 -99.0 -99.0 -99.0 -99.0 -99.0  -99.  -99.
   70.-99.00 -99.0 -99.0 -99.0 -99.0 -99.0 -99.0 -99.0 -99.0 -99.0-99.00 -99.0 -99.0 -99.0 -99.0 -99.0  -99.  -99.
   80.-99.00 -99.0 -99.0 -99.0 -99.0 -99.0 -99.0 -99.0 -99.0 -99.0-99.00 -99.0 -99.0 -99.0 -99.0 -99.0  -99.  -99.
  100.-99.00 -99.0 -99.0 -99.0 -99.0 -99.0 -99.0 -99.0 -99.0 -99.0-99.00 -99.0 -99.0 -99.0 -99.0 -99.0  -99.  -99.
  120.-99.00 -99.0 -99.0 -99.0 -99.0 -99.0 -99.0 -99.0 -99.0 -99.0-99.00 -99.0 -99.0 -99.0 -99.0 -99.0  -99.  -99.
  140.-99.00 -99.0 -99.0 -99.0 -99.0 -99.0 -99.0 -99.0 -99.0 -99.0-99.00 -99.0 -99.0 -99.0 -99.0 -99.0  -99.  -99.
  160.-99.00 -99.0 -99.0 -99.0 -99.0 -99.0 -99.0 -99.0 -99.0 -99.0-99.00 -99.0 -99.0 -99.0 -99.0 -99.0  -99.  -99.
  180.-99.00 -99.0 -99.0 -99.0 -99.0 -99.0 -99.0 -99.0 -99.0 -99.0-99.00 -99.0 -99.0 -99.0 -99.0 -99.0  -99.  -99.
  200.-99.00 -99.0 -99.0 -99.0 -99.0 -99.0 -99.0 -99.0 -99.0 -99.0-99.00 -99.0 -99.0 -99.0 -99.0 -99.0  -99.  -99.
                    
    5.-99.00-99.00-99.00-99.00
   15.-99.00-99.00-99.00-99.00
   20.-99.00-99.00-99.00-99.00
   30.-99.00-99.00-99.00-99.00
   40.-99.00-99.00-99.00-99.00
   50.-99.00-99.00-99.00-99.00
   60.-99.00-99.00-99.00-99.00
   70.-99.00-99.00-99.00-99.00
   80.-99.00-99.00-99.00-99.00
  100.-99.00-99.00-99.00-99.00
  120.-99.00-99.00-99.00-99.00
  140.-99.00-99.00-99.00-99.00
  160.-99.00-99.00-99.00-99.00
  180.-99.00-99.00-99.00-99.00
  200.-99.00-99.00-99.00-99.00
*CULTIVAR           
IB0019 Sungold          SU0702 15.00-0.086 17.60  5.50 10.20 28.40 14.00 1.900 260.0 200.0  0.83 0.060 24.00  2.00  4.20  68.0 0.140 0.480
