*MODEL INPUT FILE            B     1     1     1   999     0
*FILES              
MODEL          CRGRO048
FILEX          CNCH8201.BRX                                                                                 
FILEA          CNCH8201.BRA                                                                                 
FILET          CNCH8201.BRT                                                                                 
SPECIES        BRGRO048.SPE C:\DSSAT48\GENOTYPE\                                                            
ECOTYPE        BRGRO048.ECO C:\DSSAT48\GENOTYPE\                                                            
CULTIVAR       BRGRO048.CUL C:\DSSAT48\GENOTYPE\                                                            
PESTS          BRGRO048.PST C:\DSSAT48\PEST\                                                                
SOILS          SOIL.SOL     C:\DSSAT48\SOIL\                                                                
WEATHERW       CNCH8201.WTH C:\DSSAT48\Weather\                                                             
OUTPUT         OVERVIEW
*SIMULATION CONTROL 
                   1     1     S 1982032  2150 BRACHI : C4GRASS 2 YR    
                   Y     Y     N     N     N     Y     N     N     M
                   M     M     E     R     S     C     R     1     P     R     2     D     0
                   R     R     R     N     R
                   N     Y     Y     1     Y     Y     Y     Y     N     Y     Y     N     N
!AUTOMATIC MANAGEM  
                   -99     -99   40.  100.   30.   40.   10.
                 30.   50.  100. GS000 IR001  10.0 0.000
                 30.   50.   25. FE001 GS000
                100.     1   20.
                     0     -99  100.    0.
*EXP.DETAILS        
  1CNCH8201 BR BRACHIARIA ON LA ROMELIA                                    
*TREATMENTS         
  1 0 0 0 82 Treatment 1           
*CULTIVARS          
   BR CN0003 Brachiaria 3    
*FIELDS             
   CNCH0001 CNCH8201   0.0    0. DR000    0. 100.0     0 SALO   120. CNCH820001-99.00 -99.0
      0.0000000000    0.0000000000  1360.000               1.0  100.   1.0   0.0   -99   -99
*INITIAL CONDITIONS 
   SB    1982032     0     0  1.00  1.00 -99.0     0  0.00  0.00  100.   15.
      5. 0.260 0.200  2.00
     15. 0.260 0.200  2.00
     20. 0.260 0.200  2.00
     25. 0.260 0.500  3.80
     30. 0.260 0.500  3.80
     35. 0.260 0.500  3.80
     40. 0.260 0.500  3.80
     55. 0.260 0.500  4.10
     70. 0.260 0.500  4.10
     95. 0.260 0.500  4.10
    120. 0.260 0.500  4.10
*PLANTING DETAILS   
   1982040 1982048 100.0 100.0     S     R   10.    0.   1.0    3.  -99. -99.0 -99.0   0.0
*IRRIGATION         
   1.000   30.   50.  100. GS000 IR001  10.0
*FERTILIZERS        
   1982099 FE005 AP002    0.   50.    0.    0.    0.    0.   -99
   1982129 FE005 AP002    0.   50.    0.    0.    0.    0.   -99
*RESIDUES           
*CHEMICALS          
*TILLAGE            
*ENVIRONMENT        
*HARVEST            
   1983182 GS000     C   -99  100.    0.
*SOIL               
 CNCH820001  XXXX   SALO SALO   120.   SANDY LOAM AT LA ROMELIA-CENICAFE               
 LA ROMELIA  COLOMBIA      4.900  75.700 Typic Dystrandept.                                
 -99    0.13  11.5  0.65   75.  0.80  1.00 -99   -99   -99   -99  
    5.       0.090 0.260 0.620 0.950  -99.  0.70 3.600  19.0  31.0 -99.0 0.360  5.10-99.00  3.80-99.00
   15.       0.130 0.360 0.620 0.820  -99.  1.32 3.105  19.0  31.0 -99.0 0.360  5.10-99.00  3.80-99.00
   20.       0.130 0.360 0.620 0.700  -99.  1.34 2.650  19.0  31.0 -99.0 0.360  5.10-99.00  3.80-99.00
   25.       0.130 0.350 0.430 0.630  -99.  1.37 2.390  19.0  31.0 -99.0 0.360  5.10-99.00-99.00-99.00
   30.       0.120 0.300 0.430 0.580  -99.  1.37 2.200  19.0  31.0 -99.0 0.360  5.10-99.00-99.00-99.00
   35.       0.140 0.320 0.430 0.520  -99.  1.39 1.970  19.0  31.0 -99.0 0.360  5.10-99.00-99.00-99.00
   40.       0.140 0.300 0.430 0.470  -99.  1.40 1.780  19.0  31.0 -99.0 0.360  5.10-99.00-99.00-99.00
   55.       0.130 0.280 0.400 0.330  -99.  1.49 1.260  19.0  31.0 -99.0 0.200  5.10-99.00-99.00-99.00
   70.       0.130 0.280 0.400 0.330  -99.  1.49 1.260  19.0  31.0 -99.0 0.200  5.10-99.00-99.00-99.00
   95.       0.130 0.270 0.400 0.150  -99.  1.55 0.570  19.0  31.0 -99.0 0.100  5.10-99.00-99.00-99.00
  120.       0.130 0.270 0.400 0.150  -99.  1.55 0.570  19.0  31.0 -99.0 0.100  5.10-99.00-99.00-99.00
                    
    5.-99.00 -99.0 -99.0 -99.0 -99.0 -99.0 -99.0 -99.0 -99.0 -99.0-99.00 -99.0 -99.0 -99.0 -99.0 -99.0  -99.  -99.
   15.-99.00 -99.0 -99.0 -99.0 -99.0 -99.0 -99.0 -99.0 -99.0 -99.0-99.00 -99.0 -99.0 -99.0 -99.0 -99.0  -99.  -99.
   20.-99.00 -99.0 -99.0 -99.0 -99.0 -99.0 -99.0 -99.0 -99.0 -99.0-99.00 -99.0 -99.0 -99.0 -99.0 -99.0  -99.  -99.
   25.-99.00 -99.0 -99.0 -99.0 -99.0 -99.0 -99.0 -99.0 -99.0 -99.0-99.00 -99.0 -99.0 -99.0 -99.0 -99.0  -99.  -99.
   30.-99.00 -99.0 -99.0 -99.0 -99.0 -99.0 -99.0 -99.0 -99.0 -99.0-99.00 -99.0 -99.0 -99.0 -99.0 -99.0  -99.  -99.
   35.-99.00 -99.0 -99.0 -99.0 -99.0 -99.0 -99.0 -99.0 -99.0 -99.0-99.00 -99.0 -99.0 -99.0 -99.0 -99.0  -99.  -99.
   40.-99.00 -99.0 -99.0 -99.0 -99.0 -99.0 -99.0 -99.0 -99.0 -99.0-99.00 -99.0 -99.0 -99.0 -99.0 -99.0  -99.  -99.
   55.-99.00 -99.0 -99.0 -99.0 -99.0 -99.0 -99.0 -99.0 -99.0 -99.0-99.00 -99.0 -99.0 -99.0 -99.0 -99.0  -99.  -99.
   70.-99.00 -99.0 -99.0 -99.0 -99.0 -99.0 -99.0 -99.0 -99.0 -99.0-99.00 -99.0 -99.0 -99.0 -99.0 -99.0  -99.  -99.
   95.-99.00 -99.0 -99.0 -99.0 -99.0 -99.0 -99.0 -99.0 -99.0 -99.0-99.00 -99.0 -99.0 -99.0 -99.0 -99.0  -99.  -99.
  120.-99.00 -99.0 -99.0 -99.0 -99.0 -99.0 -99.0 -99.0 -99.0 -99.0-99.00 -99.0 -99.0 -99.0 -99.0 -99.0  -99.  -99.
                    
    5.-99.00-99.00-99.00-99.00
   15.-99.00-99.00-99.00-99.00
   20.-99.00-99.00-99.00-99.00
   25.-99.00-99.00-99.00-99.00
   30.-99.00-99.00-99.00-99.00
   35.-99.00-99.00-99.00-99.00
   40.-99.00-99.00-99.00-99.00
   55.-99.00-99.00-99.00-99.00
   70.-99.00-99.00-99.00-99.00
   95.-99.00-99.00-99.00-99.00
  120.-99.00-99.00-99.00-99.00
*CULTIVAR           
CN0003 Brachiaria 3     BR0001 12.00 0.200 99.00 10.00 18.00 33.00 25.00 2.200 225.0   2.0  0.01 0.002 18.00  2.05 20.00  78.0 0.398 0.500
