*MODEL INPUT FILE            B     1     1     1   999     0
*FILES              
MODEL          SGCER048
FILEX          CSKU8201.SGX                                                                                 
FILEA          CSKU8201.SGA                                                                                 
FILET          CSKU8201.SGT                                                                                 
SPECIES        SGCER048.SPE C:\DSSAT48\GENOTYPE\                                                            
ECOTYPE        SGCER048.ECO C:\DSSAT48\GENOTYPE\                                                            
CULTIVAR       SGCER048.CUL C:\DSSAT48\GENOTYPE\                                                            
PESTS          SGCER048.PST C:\DSSAT48\PEST\                                                                
SOILS          SOIL.SOL     C:\DSSAT48\SOIL\                                                                
WEATHERW       CSKU8201.WTH C:\DSSAT48\Weather\                                                             
OUTPUT         OVERVIEW
*SIMULATION CONTROL 
                   1     1     S 1982145  2150 Kununurra Irrigation Exp 
                   Y     Y     N     N     N     N     N     N     M
                   M     M     E     R     S     C     R     1     P     R     2     D     0
                   R     R     R     N     M
                   N     Y     Y     1     Y     N     Y     Y     N     N     Y     N     N
!AUTOMATIC MANAGEM  
                   -99     -99   40.  100.   30.   40.   10.
                 30.   50.  100. GS000 IR001  10.0 1.000
                 30.   50.   25. FE001 GS000
                100.     1   20.
                     0     -99  100.    0.
*EXP.DETAILS        
  1CSKU8201 SG KUNNUNURRA IRRIGATION EXP 1982                              
*TREATMENTS         
  1 1 0 0 Sprinkler IR,   0 kg N/ha
*CULTIVARS          
   SG IB0040 RS610           
*FIELDS             
   CSKU0001 CSKU8201   0.0    0. DR000    0. 100.0 00000 -99    130. IBSG910011-99.00 -99.0
      0.0000000000    0.0000000000     0.000               1.0  100.   1.0   0.0   -99   -99
*INITIAL CONDITIONS 
   SG    1982145  2000     0  1.00  1.00 -99.0  3000  1.60  0.00  100.   10.
      5. 0.231  4.00  10.0
     15. 0.228  1.00  10.0
     20. 0.228  1.00  10.0
     30. 0.231  1.00  5.00
     40. 0.228  1.00  2.00
     50. 0.241 0.500  1.00
     60. 0.236 0.500 0.500
     70. 0.236 0.500 0.500
     90. 0.241 0.500 0.500
    110. 0.256 0.500 0.500
    130. 0.256 0.500 0.500
*PLANTING DETAILS   
   1982146     -99  20.0  20.0     S     R   75.    0.   5.0  -99.  -99. -99.0 -99.0   0.0
*IRRIGATION         
   1.000   30.   75.  -99. GS000 IR001   0.0
   1982156 IR001  50.0
   1982166 IR001  50.0
   1982177 IR001  50.0
   1982189 IR001  50.0
   1982200 IR001  50.0
   1982211 IR001  50.0
   1982221 IR001  50.0
   1982230 IR001  50.0
   1982239 IR001  50.0
   1982248 IR001  50.0
*FERTILIZERS        
   1982146 FE005 AP002    5.    0.  -99.  -99.  -99.  -99.   -99
*RESIDUES           
*CHEMICALS          
*TILLAGE            
*ENVIRONMENT        
*HARVEST            
*SOIL               
 IBSG910011  IBSNAT      -99    130.   Weakly self-mulching grey medium to heavy clay  
 -99         -99          -0.009  -0.099 HEAVY CLAY                                        
 -99    0.13   6.0  0.50   60.  1.00  0.80 IB00  IB00  IB00  -99  
    5.       0.154 0.231 0.414 1.000  -99.  1.10 2.000 -99.0 -99.0 -99.0  -9.0  7.00-99.00-99.00-99.00
   15.       0.153 0.228 0.290 0.900  -99.  1.30 1.000 -99.0 -99.0 -99.0  -9.0  7.00-99.00-99.00-99.00
   20.       0.153 0.228 0.290 0.900  -99.  1.30 1.000 -99.0 -99.0 -99.0  -9.0  7.00-99.00-99.00-99.00
   30.       0.164 0.231 0.273 0.800  -99.  1.40 0.900 -99.0 -99.0 -99.0  -9.0  7.00-99.00-99.00-99.00
   40.       0.166 0.228 0.277 0.700  -99.  1.50 0.800 -99.0 -99.0 -99.0  -9.0  7.00-99.00-99.00-99.00
   50.       0.164 0.241 0.296 0.600  -99.  1.50 0.600 -99.0 -99.0 -99.0  -9.0  7.00-99.00-99.00-99.00
   60.       0.169 0.236 0.285 0.500  -99.  1.50 0.500 -99.0 -99.0 -99.0  -9.0  7.00-99.00-99.00-99.00
   70.       0.169 0.236 0.285 0.500  -99.  1.50 0.500 -99.0 -99.0 -99.0  -9.0  7.00-99.00-99.00-99.00
   90.       0.172 0.241 0.284 0.400  -99.  1.50 0.300 -99.0 -99.0 -99.0  -9.0  7.00-99.00-99.00-99.00
  110.       0.180 0.256 0.308 0.200  -99.  1.50 0.300 -99.0 -99.0 -99.0  -9.0  7.00-99.00-99.00-99.00
  130.       0.180 0.256 0.308 0.050  -99.  1.60 0.200 -99.0 -99.0 -99.0  -9.0  7.00-99.00-99.00-99.00
                    
    5.-99.00 -99.0 -99.0 -99.0 -99.0 -99.0 -99.0 -99.0 -99.0 -99.0-99.00 -99.0 -99.0 -99.0 -99.0 -99.0  -99.  -99.
   15.-99.00 -99.0 -99.0 -99.0 -99.0 -99.0 -99.0 -99.0 -99.0 -99.0-99.00 -99.0 -99.0 -99.0 -99.0 -99.0  -99.  -99.
   20.-99.00 -99.0 -99.0 -99.0 -99.0 -99.0 -99.0 -99.0 -99.0 -99.0-99.00 -99.0 -99.0 -99.0 -99.0 -99.0  -99.  -99.
   30.-99.00 -99.0 -99.0 -99.0 -99.0 -99.0 -99.0 -99.0 -99.0 -99.0-99.00 -99.0 -99.0 -99.0 -99.0 -99.0  -99.  -99.
   40.-99.00 -99.0 -99.0 -99.0 -99.0 -99.0 -99.0 -99.0 -99.0 -99.0-99.00 -99.0 -99.0 -99.0 -99.0 -99.0  -99.  -99.
   50.-99.00 -99.0 -99.0 -99.0 -99.0 -99.0 -99.0 -99.0 -99.0 -99.0-99.00 -99.0 -99.0 -99.0 -99.0 -99.0  -99.  -99.
   60.-99.00 -99.0 -99.0 -99.0 -99.0 -99.0 -99.0 -99.0 -99.0 -99.0-99.00 -99.0 -99.0 -99.0 -99.0 -99.0  -99.  -99.
   70.-99.00 -99.0 -99.0 -99.0 -99.0 -99.0 -99.0 -99.0 -99.0 -99.0-99.00 -99.0 -99.0 -99.0 -99.0 -99.0  -99.  -99.
   90.-99.00 -99.0 -99.0 -99.0 -99.0 -99.0 -99.0 -99.0 -99.0 -99.0-99.00 -99.0 -99.0 -99.0 -99.0 -99.0  -99.  -99.
  110.-99.00 -99.0 -99.0 -99.0 -99.0 -99.0 -99.0 -99.0 -99.0 -99.0-99.00 -99.0 -99.0 -99.0 -99.0 -99.0  -99.  -99.
  130.-99.00 -99.0 -99.0 -99.0 -99.0 -99.0 -99.0 -99.0 -99.0 -99.0-99.00 -99.0 -99.0 -99.0 -99.0 -99.0  -99.  -99.
                    
    5.-99.00-99.00-99.00-99.00
   15.-99.00-99.00-99.00-99.00
   20.-99.00-99.00-99.00-99.00
   30.-99.00-99.00-99.00-99.00
   40.-99.00-99.00-99.00-99.00
   50.-99.00-99.00-99.00-99.00
   60.-99.00-99.00-99.00-99.00
   70.-99.00-99.00-99.00-99.00
   90.-99.00-99.00-99.00-99.00
  110.-99.00-99.00-99.00-99.00
  130.-99.00-99.00-99.00-99.00
*CULTIVAR           
IB0040 RS610            IB0001  247.8186.30  12.3  87.2 617.5 152.5 81.50 666.5  49.0  22.0   6.0
