*MODEL INPUT FILE            B     1     1     1   999     0
*FILES              
MODEL          SGCER048
FILEX          ITSA1415.SGX                                                                                 
FILEA          ITSA1415.SGA                                                                                 
FILET          ITSA1415.SGT                                                                                 
SPECIES        SGCER048.SPE C:\DSSAT48\GENOTYPE\                                                            
ECOTYPE        SGCER048.ECO C:\DSSAT48\GENOTYPE\                                                            
CULTIVAR       SGCER048.CUL C:\DSSAT48\GENOTYPE\                                                            
PESTS          SGCER048.PST C:\DSSAT48\PEST\                                                                
SOILS          IC.SOL       C:\DSSAT48\SOIL\                                                                
WEATHERW       SMKO1401.WTH C:\DSSAT48\Weather\                                                             
OUTPUT         OVERVIEW
*SIMULATION CONTROL 
                   1     1     S 2014121  2150 CSM335                   
                   Y     Y     N     Y     N     N     N     N     M
                   M     M     E     R     S     R     R     1     P     R     2     D     0
                   R     N     R     N     M
                   N     Y     Y     1     Y     N     Y     Y     Y     N     Y     N     N
!AUTOMATIC MANAGEM  
                   -99     -99   40.  100.   30.   40.   10.
                 30.   50.  100. GS000 IR001  10.0 1.000
                 30.   50.   25. FE001 GS000
                100.     1   20.
                     0     -99  100.    0.
*EXP.DETAILS        
  1ITSA1415 SG SORGHUM PHOSPHORUS TRIALS IN MALI                           
*TREATMENTS         
  1 1 0 0 CSM335  2014 HP          
*CULTIVARS          
   SG IB0056 CSM335          
*FIELDS             
   ITSA2014 SMKO1401   0.0    0. DR000    0. 100.0 00000 LS     172. ICML050002-99.00 -99.0
      0.0000000000    0.0000000000   368.000               1.0  100.   1.0   0.0 FH201   -99
*INITIAL CONDITIONS 
   SG    2014121   500     0  1.00  1.00 -99.0  1000  0.50  0.00  100.   10.
      5. 0.092 0.600  5.30
     15. 0.092 0.600  5.30
     20. 0.092 0.600  5.30
     32. 0.175 0.600  5.30
     45. 0.175 0.600  5.30
     57. 0.175 0.600  5.30
     70. 0.175 0.600  5.30
     95. 0.206 0.600  5.30
    120. 0.206 0.600  5.30
*PLANTING DETAILS   
   2014174     -99   6.7   6.7     S     R   75.    0.   3.0  -99.  -99. -99.0 -99.0   0.0
*IRRIGATION         
   1.000    0.    0.    0. GS000 IR001   0.0
*FERTILIZERS        
   2014161 FE006 AP002    2.   18.   20.  -99.  -99.  -99.   -99
   2014212 FE005 AP002    2.   23.    0.  -99.  -99.  -99.   -99
*RESIDUES           
*CHEMICALS          
*TILLAGE            
   2014157 TI041  25.0
*ENVIRONMENT        
*HARVEST            
*SOIL               
 ICML050002  Clerget05hi LS     172.   ICRI_SAT_CLERG                                  
 Samanko     Mali         12.520  -8.070 -99                                               
 BN     0.13   6.0  0.50   76.  1.00  0.60 IB001 SA002 IB001 -99  
    5.       0.070 0.178 0.439 1.000  25.9  1.42 0.200   7.8  33.1 -99.0 0.030  5.20-99.00  1.90-99.00
   15.       0.070 0.178 0.439 1.000  25.9  1.42 0.200   7.8  33.1 -99.0 0.030  5.20-99.00  1.90-99.00
   20.       0.070 0.178 0.439 1.000  25.9  1.42 0.200   7.8  33.1 -99.0 0.030  5.20-99.00  1.90-99.00
   32.       0.149 0.279 0.436 0.407  13.2  1.43 0.180  23.6  39.9 -99.0 0.030  5.30-99.00  2.90-99.00
   45.       0.149 0.279 0.436 0.407  13.2  1.43 0.180  23.6  39.9 -99.0 0.030  5.30-99.00  2.90-99.00
   57.       0.149 0.279 0.436 0.407  13.2  1.43 0.180  23.6  39.9 -99.0 0.030  5.30-99.00  2.90-99.00
   70.       0.149 0.279 0.436 0.407  13.2  1.43 0.180  23.6  39.9 -99.0 0.030  5.30-99.00  2.90-99.00
   95.       0.178 0.316 0.458 0.150 0.230  1.37 0.120  29.7  42.7 -99.0 0.030  5.10-99.00  2.90-99.00
  120.       0.178 0.316 0.458 0.150 0.230  1.37 0.120  29.7  42.7 -99.0 0.030  5.10-99.00  2.90-99.00
                    
    5. 20.30 -99.0 -99.0 -99.0 -99.0 -99.0 -99.0 -99.0 -99.0 -99.0-99.00 -99.0 -99.0 -99.0 -99.0 -99.0  -99.  -99.
   15. 20.30 -99.0 -99.0 -99.0 -99.0 -99.0 -99.0 -99.0 -99.0 -99.0-99.00 -99.0 -99.0 -99.0 -99.0 -99.0  -99.  -99.
   20. 20.30 -99.0 -99.0 -99.0 -99.0 -99.0 -99.0 -99.0 -99.0 -99.0-99.00 -99.0 -99.0 -99.0 -99.0 -99.0  -99.  -99.
   32. 18.00 -99.0 -99.0 -99.0 -99.0 -99.0 -99.0 -99.0 -99.0 -99.0-99.00 -99.0 -99.0 -99.0 -99.0 -99.0  -99.  -99.
   45. 18.00 -99.0 -99.0 -99.0 -99.0 -99.0 -99.0 -99.0 -99.0 -99.0-99.00 -99.0 -99.0 -99.0 -99.0 -99.0  -99.  -99.
   57. 18.00 -99.0 -99.0 -99.0 -99.0 -99.0 -99.0 -99.0 -99.0 -99.0-99.00 -99.0 -99.0 -99.0 -99.0 -99.0  -99.  -99.
   70. 18.00 -99.0 -99.0 -99.0 -99.0 -99.0 -99.0 -99.0 -99.0 -99.0-99.00 -99.0 -99.0 -99.0 -99.0 -99.0  -99.  -99.
   95. 18.00 -99.0 -99.0 -99.0 -99.0 -99.0 -99.0 -99.0 -99.0 -99.0-99.00 -99.0 -99.0 -99.0 -99.0 -99.0  -99.  -99.
  120. 18.00 -99.0 -99.0 -99.0 -99.0 -99.0 -99.0 -99.0 -99.0 -99.0-99.00 -99.0 -99.0 -99.0 -99.0 -99.0  -99.  -99.
                    
    5.-99.00-99.00-99.00-99.00
   15.-99.00-99.00-99.00-99.00
   20.-99.00-99.00-99.00-99.00
   32.-99.00-99.00-99.00-99.00
   45.-99.00-99.00-99.00-99.00
   57.-99.00-99.00-99.00-99.00
   70.-99.00-99.00-99.00-99.00
   95.-99.00-99.00-99.00-99.00
  120.-99.00-99.00-99.00-99.00
*CULTIVAR           
IB0056 CSM335           IB0002  400.0252.00  12.81000.0 617.5 252.5 81.50 400.0  60.0  10.0   3.0
