*MODEL INPUT FILE            B     1     1     1   999     0
*FILES              
MODEL          CSCER048
FILEX          MTBO7701.BAX                                                                                 
FILEA          MTBO7701.BAA                                                                                 
FILET          MTBO7701.BAT                                                                                 
SPECIES        BACER048.SPE C:\DSSAT48\GENOTYPE\                                                            
ECOTYPE        BACER048.ECO C:\DSSAT48\GENOTYPE\                                                            
CULTIVAR       BACER048.CUL C:\DSSAT48\GENOTYPE\                                                            
PESTS          BACER048.PST C:\DSSAT48\PEST\                                                                
SOILS          SOIL.SOL     C:\DSSAT48\SOIL\                                                                
WEATHERW       MTBO7701.WTH C:\DSSAT48\Weather\                                                             
OUTPUT         OVERVIEW
*SIMULATION CONTROL 
                   1     1     S 1977110  2150 Bozeman, MT 1977         
                   Y     Y     N     N     N     N     N     N     M
                   M     M     E     R     S     C     R     1     G     R     2     D     0
                   R     R     R     N     M
                   N     Y     Y     1     Y     N     Y     Y     N     N     Y     N     N
!AUTOMATIC MANAGEM  
                   -99     -99   40.  100.   30.   40.   10.
                 30.   50.  100. GS000 IR001  10.0 1.000
                 30.   50.   25. FE001 GS000
                100.     1   20.
                     0     -99  100.    0.
*EXP.DETAILS        
  1MTBO7701 BA N LEVELS+SPLITS,BOZEMAN  9FE(N),2IR  (DSSAT3)               
*TREATMENTS         
  1 1 0 0 Irrig 0 Kg N/ha          
*CULTIVARS          
   BA IB0030 Maris Badger    
*FIELDS             
   MTBO0001 MTBO7701   0.0    0. DR000    0. 100.0 00000 -99    180. IBBA980060-99.00 -99.0
      0.0000000000    0.0000000000     0.000               1.0  100.   1.0   0.0   -99   -99
*INITIAL CONDITIONS 
   BA    1977110    10     0  1.00  1.00 -99.0  1000  0.14  0.00  100.   10.
      5. 0.410  2.00  3.00
     15. 0.410  2.00  3.00
     30. 0.410  2.00  3.00
     45. 0.410  2.00  2.00
     60. 0.410  2.00  2.00
     90. 0.410  2.00  2.00
    120. 0.410  2.00  2.00
    150. 0.410  2.00  2.00
    180. 0.410  2.00  2.00
*PLANTING DETAILS   
   1977111     -99 200.0 200.0     S     R   10.    0.   5.0  -99.  -99. -99.0 -99.0   0.0
*IRRIGATION         
   1.000   30.   75.  -99. GS000 IR001   0.0
   1977123 IR001 100.0
   1977176 IR001  25.0
   1977183 IR001  25.0
   1977200 IR001 100.0
*FERTILIZERS        
   1977111 FE002 AP001    4.    0.    0.    0.    0.    0.   -99
*RESIDUES           
*CHEMICALS          
*TILLAGE            
*ENVIRONMENT        
*HARVEST            
*SOIL               
 IBBA980060  IBSNAT      -99    180.   Bozeman                                         
 Bozeman     USA          -0.009  -0.099 Typic Haploboroll                                 
 -99    0.12  12.0  0.60   60.  1.00  1.00 SA001 SA001 SA001 -99  
    5.       0.280 0.410 0.490 1.000  -99.  1.30 1.160 -99.0 -99.0 -99.0  -9.0  7.00-99.00-99.00-99.00
   15.       0.280 0.410 0.490 0.850  -99.  1.30 1.080 -99.0 -99.0 -99.0  -9.0  7.00-99.00-99.00-99.00
   30.       0.280 0.410 0.490 0.700  -99.  1.30 1.000 -99.0 -99.0 -99.0  -9.0  7.00-99.00-99.00-99.00
   45.       0.280 0.410 0.490 0.300  -99.  1.30 0.910 -99.0 -99.0 -99.0  -9.0  7.00-99.00-99.00-99.00
   60.       0.280 0.410 0.490 0.300  -99.  1.30 0.910 -99.0 -99.0 -99.0  -9.0  7.00-99.00-99.00-99.00
   90.       0.280 0.410 0.490 0.100  -99.  1.30 0.610 -99.0 -99.0 -99.0  -9.0  7.00-99.00-99.00-99.00
  120.       0.280 0.410 0.490 0.050  -99.  1.30 0.590 -99.0 -99.0 -99.0  -9.0  7.00-99.00-99.00-99.00
  150.       0.280 0.410 0.490 0.025  -99.  1.30 0.290 -99.0 -99.0 -99.0  -9.0  7.00-99.00-99.00-99.00
  180.       0.280 0.410 0.490 0.005  -99.  1.30 0.240 -99.0 -99.0 -99.0  -9.0  7.00-99.00-99.00-99.00
                    
    5.-99.00 -99.0 -99.0 -99.0 -99.0 -99.0 -99.0 -99.0 -99.0 -99.0-99.00 -99.0 -99.0 -99.0 -99.0 -99.0  -99.  -99.
   15.-99.00 -99.0 -99.0 -99.0 -99.0 -99.0 -99.0 -99.0 -99.0 -99.0-99.00 -99.0 -99.0 -99.0 -99.0 -99.0  -99.  -99.
   30.-99.00 -99.0 -99.0 -99.0 -99.0 -99.0 -99.0 -99.0 -99.0 -99.0-99.00 -99.0 -99.0 -99.0 -99.0 -99.0  -99.  -99.
   45.-99.00 -99.0 -99.0 -99.0 -99.0 -99.0 -99.0 -99.0 -99.0 -99.0-99.00 -99.0 -99.0 -99.0 -99.0 -99.0  -99.  -99.
   60.-99.00 -99.0 -99.0 -99.0 -99.0 -99.0 -99.0 -99.0 -99.0 -99.0-99.00 -99.0 -99.0 -99.0 -99.0 -99.0  -99.  -99.
   90.-99.00 -99.0 -99.0 -99.0 -99.0 -99.0 -99.0 -99.0 -99.0 -99.0-99.00 -99.0 -99.0 -99.0 -99.0 -99.0  -99.  -99.
  120.-99.00 -99.0 -99.0 -99.0 -99.0 -99.0 -99.0 -99.0 -99.0 -99.0-99.00 -99.0 -99.0 -99.0 -99.0 -99.0  -99.  -99.
  150.-99.00 -99.0 -99.0 -99.0 -99.0 -99.0 -99.0 -99.0 -99.0 -99.0-99.00 -99.0 -99.0 -99.0 -99.0 -99.0  -99.  -99.
  180.-99.00 -99.0 -99.0 -99.0 -99.0 -99.0 -99.0 -99.0 -99.0 -99.0-99.00 -99.0 -99.0 -99.0 -99.0 -99.0  -99.  -99.
                    
    5.-99.00-99.00-99.00-99.00
   15.-99.00-99.00-99.00-99.00
   30.-99.00-99.00-99.00-99.00
   45.-99.00-99.00-99.00-99.00
   60.-99.00-99.00-99.00-99.00
   90.-99.00-99.00-99.00-99.00
  120.-99.00-99.00-99.00-99.00
  150.-99.00-99.00-99.00-99.00
  180.-99.00-99.00-99.00-99.00
*CULTIVAR           
