*MODEL INPUT FILE            B     1     1     1   999     0
*FILES              
MODEL          CRGRO048
FILEX          UFBR9601.PRX                                                                                 
FILEA          UFBR9601.PRA                                                                                 
FILET          UFBR9601.PRT                                                                                 
SPECIES        PRGRO048.SPE C:\DSSAT48\GENOTYPE\                                                            
ECOTYPE        PRGRO048.ECO C:\DSSAT48\GENOTYPE\                                                            
CULTIVAR       PRGRO048.CUL C:\DSSAT48\GENOTYPE\                                                            
PESTS          PRGRO048.PST C:\DSSAT48\PEST\                                                                
SOILS          SOIL.SOL     C:\DSSAT48\SOIL\                                                                
WEATHERW       UFBR9601.WTH C:\DSSAT48\Weather\                                                             
OUTPUT         OVERVIEW
*SIMULATION CONTROL 
                   1     1     S 1996249  2150 Fert Trial               
                   Y     Y     N     N     N     N     N     N     M
                   M     M     H     R     S     L     R     1     P     R     2     D     0
                   R     A     R     R     R
                   N     Y     Y     1     Y     Y     Y     Y     N     N     Y     N     N
!AUTOMATIC MANAGEM  
                   -99     -99   40.  100.   30.   45.   40.
                 30.   80.  100. GS000 SI001  10.0 1.000
                200.   50.   25. SI001 SI001
                100.    60   20.
                   160     -99   75.    0.
*EXP.DETAILS        
  1UFBR9601 PR 1996 FERTILIZER TRIAL, BRADENTON, FL                        
*TREATMENTS         
  1 1 0 0 0 kg/ha N Bradenton      
*CULTIVARS          
   PR PR0001 CAPISTRANO      
*FIELDS             
   UFBR0001 UFBR9601   0.0    0. DR000    0. 100.0  0000 SA     180. UFBR950001-99.00 -99.0
    -99.0000000000  -99.0000000000   -99.000               1.0  100.   1.0 -99.0 FH201    25
*INITIAL CONDITIONS 
   PR    1996249     1     0  1.00  1.00 -99.0     0  0.00  0.00  100.    5.
      5. 0.133 0.500  2.00
     15. 0.133 0.500  2.00
     18. 0.133 0.500  2.00
     27. 0.222 0.500  2.00
     36. 0.222 0.500  2.00
     49. 0.300 0.500  2.00
     61. 0.382 0.042 0.167
     74. 0.389   0.0   0.0
     81. 0.400   0.0   0.0
    100. 0.400   0.0   0.0
    119. 0.400   0.0   0.0
    146. 0.400   0.0   0.0
    173. 0.400   0.0   0.0
    190. 0.400   0.0   0.0
    203. 0.400   0.0   0.0
*PLANTING DETAILS   
   1996249     -99   4.3   4.3     T     R   75.   90.   1.0   13.   16.  20.0   1.0 -99.0
*IRRIGATION         
   1.000    0.    0.    0. GS000 IR001   0.0
*FERTILIZERS        
*RESIDUES           
*CHEMICALS          
*TILLAGE            
*ENVIRONMENT        
*HARVEST            
   1996364 GS000   -99   -99  100.    0.
*SOIL               
 UFBR950001  SCS         SA     180.   Eaugallie fine sand (IMPERVIOUS LAYER AT 120 CM)
 BRADENTON   U.S.A.       27.000  82.300 SANDY, SILICEOUS, HYPERTHERMIC, ALFIC, HAPLAQUOD  
 G      0.13  12.7  0.05   87.  1.00  0.97 IB001 IB001 IB001 -99  
    5.       0.022 0.133 0.423 1.000  18.4  1.22 1.020   0.8   1.1   0.0 0.090  6.00-99.00  3.90-99.00
   15.       0.022 0.133 0.423 1.000  18.4  1.22 1.020   0.8   1.1   0.0 0.090  6.00-99.00  3.90-99.00
   18.       0.022 0.133 0.423 1.000  18.4  1.22 1.020   0.8   1.1   0.0 0.090  6.00-99.00  3.90-99.00
   27.       0.022 0.111 0.430 0.300  15.8  1.51 0.700   0.6   2.9   0.0 0.060  5.00-99.00  2.60-99.00
   36.       0.022 0.111 0.430 0.300  15.8  1.51 0.700   0.6   2.9   0.0 0.060  5.00-99.00  2.60-99.00
   49.       0.022 0.111 0.430 0.010  21.1  1.62 0.140   0.6   1.9   0.0 0.010  4.80-99.00  0.20-99.00
   61.       0.022 0.111 0.430 0.010  21.1  1.62 0.140   0.6   1.9   0.0 0.010  4.80-99.00  0.20-99.00
   74.       0.022 0.111 0.430 0.010  21.1  1.62 0.140   0.6   1.9   0.0 0.010  4.80-99.00  0.20-99.00
   81.       0.035 0.248 0.396 0.000  22.4  1.60 1.200   3.7   4.8   0.0 0.100  4.50-99.00  8.10-99.00
  100.       0.013 0.159 0.374 0.000    0.  1.66 0.600   1.5   2.6   0.0 0.050  4.80-99.00  2.80-99.00
  119.       0.013 0.159 0.374 0.000    0.  1.66 0.600   1.5   2.6   0.0 0.050  4.80-99.00  2.80-99.00
  146.       0.028 0.252 0.374 0.000  7.10  1.66 0.530   2.4   2.9   0.0 0.040  4.90-99.00  4.10-99.00
  173.       0.028 0.252 0.374 0.000  7.10  1.66 0.530   2.4   2.9   0.0 0.040  4.90-99.00  4.10-99.00
  190.       0.070 0.260 0.324 0.000 0.500  1.79 0.210  13.0   3.0   0.0 0.020  4.80-99.00  5.70-99.00
  203.       0.134 0.283 0.294 0.000 0.100  1.87 0.140  21.8   2.1   0.0 0.010  4.20 99.00  6.70-99.00
                    
    5.-99.00 -99.0 -99.0 -99.0 -99.0 -99.0 -99.0 -99.0 -99.0 -99.0-99.00 -99.0 -99.0 -99.0 -99.0 -99.0  -99.  -99.
   15.-99.00 -99.0 -99.0 -99.0 -99.0 -99.0 -99.0 -99.0 -99.0 -99.0-99.00 -99.0 -99.0 -99.0 -99.0 -99.0  -99.  -99.
   18.-99.00 -99.0 -99.0 -99.0 -99.0 -99.0 -99.0 -99.0 -99.0 -99.0-99.00 -99.0 -99.0 -99.0 -99.0 -99.0  -99.  -99.
   27.-99.00 -99.0 -99.0 -99.0 -99.0 -99.0 -99.0 -99.0 -99.0 -99.0-99.00 -99.0 -99.0 -99.0 -99.0 -99.0  -99.  -99.
   36.-99.00 -99.0 -99.0 -99.0 -99.0 -99.0 -99.0 -99.0 -99.0 -99.0-99.00 -99.0 -99.0 -99.0 -99.0 -99.0  -99.  -99.
   49.-99.00 -99.0 -99.0 -99.0 -99.0 -99.0 -99.0 -99.0 -99.0 -99.0-99.00 -99.0 -99.0 -99.0 -99.0 -99.0  -99.  -99.
   61.-99.00 -99.0 -99.0 -99.0 -99.0 -99.0 -99.0 -99.0 -99.0 -99.0-99.00 -99.0 -99.0 -99.0 -99.0 -99.0  -99.  -99.
   74.-99.00 -99.0 -99.0 -99.0 -99.0 -99.0 -99.0 -99.0 -99.0 -99.0-99.00 -99.0 -99.0 -99.0 -99.0 -99.0  -99.  -99.
   81.-99.00 -99.0 -99.0 -99.0 -99.0 -99.0 -99.0 -99.0 -99.0 -99.0-99.00 -99.0 -99.0 -99.0 -99.0 -99.0  -99.  -99.
  100.-99.00 -99.0 -99.0 -99.0 -99.0 -99.0 -99.0 -99.0 -99.0 -99.0-99.00 -99.0 -99.0 -99.0 -99.0 -99.0  -99.  -99.
  119.-99.00 -99.0 -99.0 -99.0 -99.0 -99.0 -99.0 -99.0 -99.0 -99.0-99.00 -99.0 -99.0 -99.0 -99.0 -99.0  -99.  -99.
  146.-99.00 -99.0 -99.0 -99.0 -99.0 -99.0 -99.0 -99.0 -99.0 -99.0-99.00 -99.0 -99.0 -99.0 -99.0 -99.0  -99.  -99.
  173.-99.00 -99.0 -99.0 -99.0 -99.0 -99.0 -99.0 -99.0 -99.0 -99.0-99.00 -99.0 -99.0 -99.0 -99.0 -99.0  -99.  -99.
  190.-99.00 -99.0 -99.0 -99.0 -99.0 -99.0 -99.0 -99.0 -99.0 -99.0-99.00 -99.0 -99.0 -99.0 -99.0 -99.0  -99.  -99.
  203.-99.00 -99.0 -99.0 -99.0 -99.0 -99.0 -99.0 -99.0 -99.0 -99.0-99.00 -99.0 -99.0 -99.0 -99.0 -99.0  -99.  -99.
                    
    5.-99.00-99.00-99.00-99.00
   15.-99.00-99.00-99.00-99.00
   18.-99.00-99.00-99.00-99.00
   27.-99.00-99.00-99.00-99.00
   36.-99.00-99.00-99.00-99.00
   49.-99.00-99.00-99.00-99.00
   61.-99.00-99.00-99.00-99.00
   74.-99.00-99.00-99.00-99.00
   81.-99.00-99.00-99.00-99.00
  100.-99.00-99.00-99.00-99.00
  119.-99.00-99.00-99.00-99.00
  146.-99.00-99.00-99.00-99.00
  173.-99.00-99.00-99.00-99.00
  190.-99.00-99.00-99.00-99.00
  203.-99.00-99.00-99.00-99.00
*CULTIVAR           
PR0001 CAPISTRANO       PR0001 12.33 0.000 37.00 10.00 15.00100.00200.00 0.980 275.0 250.0  0.85 0.007 25.00150.00 42.00   6.5 0.300 0.050
