*MODEL INPUT FILE            B     1     1     1   999     0
*FILES              
MODEL          CRGRO048
FILEX          CCPA9701.CPX                                                                                 
FILEA          CCPA9701.CPA                                                                                 
FILET          CCPA9701.CPT                                                                                 
SPECIES        CPGRO048.SPE C:\DSSAT48\GENOTYPE\                                                            
ECOTYPE        CPGRO048.ECO C:\DSSAT48\GENOTYPE\                                                            
CULTIVAR       CPGRO048.CUL C:\DSSAT48\GENOTYPE\                                                            
PESTS          CPGRO048.PST C:\DSSAT48\PEST\                                                                
SOILS          SOIL.SOL     C:\DSSAT48\SOIL\                                                                
WEATHERW       CCPA9701.WTH C:\DSSAT48\Weather\                                                             
OUTPUT         OVERVIEW
*SIMULATION CONTROL 
                   1     1     S 1997310  2150 CIAT                     
                   Y     Y     Y     N     N     N     N     N     M
                   M     M     E     R     S     L     R     1     G     R     2     D     0
                   R     A     R     N     M
                   N     Y     Y     1     Y     Y     Y     Y     Y     Y     Y     N     N
!AUTOMATIC MANAGEM  
                   -99     -99   40.  100.   30.   40.   10.
                 30.   50.  100. GS000 IR001  10.0 1.000
                 30.   50.   25. FE001 GS000
                100.     1   20.
                     0     -99  100.    0.
*EXP.DETAILS        
  1CCPA9701 CP 1997/98 CIAT CALI, COLOMBIA COWPEA                          
*TREATMENTS         
  1 0 0 0 VERDE BRASIL             
*CULTIVARS          
   CP CP0006 VERDE BRASIL    
*FIELDS             
   CIAT0001 CCPA9701   0.0    0. DR000    0. 100.0 00000 SICL   145. CCPA970001-99.00 -99.0
      0.0000000000    0.0000000000     0.000               1.0  100.   1.0   0.0   -99   -99
*INITIAL CONDITIONS 
   SB    1997310     0     0  1.00  1.00 -99.0     0  0.00  0.00  100.   15.
      5. 0.213  1.60  3.20
     15. 0.213  1.60  3.20
     26. 0.258  1.60  3.20
     38. 0.372 0.683  1.20
     47. 0.392 0.500 0.800
     57. 0.392 0.500 0.800
     69. 0.392 0.500 0.800
     81. 0.392 0.500 0.800
     95. 0.392 0.500 0.800
    110. 0.392 0.500 0.800
    128. 0.392 0.500 0.800
    145. 0.392 0.500 0.800
*PLANTING DETAILS   
   1997310 1997315   2.8   2.8     S     R   60.    0.   3.0  -99.  -99. -99.0 -99.0   0.0
*IRRIGATION         
   1.000    0.    0.    0. GS000 IR001   0.0
*FERTILIZERS        
*RESIDUES           
*CHEMICALS          
*TILLAGE            
*ENVIRONMENT        
*HARVEST            
*SOIL               
 CCPA970001  SCS         SICL   145.   CIAT                                            
 CIAT        COLOMBIA      3.000  76.350 Unknown                                           
 BK     0.10  12.7  0.30   70.  1.00  0.97 IB001 IB001 IB001 -99  
    5.       0.216 0.357 0.460 1.000  -99.  1.35 1.740  27.7  53.1   0.0  -9.0  7.30-99.00 32.10-99.00
   15.       0.216 0.357 0.460 1.000  -99.  1.38 1.655  27.7  53.1   0.0  -9.0  7.30-99.00 32.10-99.00
   26.       0.216 0.357 0.460 1.000  -99.  1.40 1.570  27.7  53.1   0.0  -9.0  7.30-99.00 32.10-99.00
   38.       0.216 0.357 0.460 1.000  -99.  1.40 1.570  27.7  53.1   0.0  -9.0  7.30-99.00 32.10-99.00
   47.       0.168 0.306 0.460 0.600  -99.  1.50 0.350  34.4  47.6   0.0  -9.0  8.20-99.00 27.90-99.00
   57.       0.168 0.306 0.460 0.600  -99.  1.50 0.350  34.4  47.6   0.0  -9.0  8.20-99.00 27.90-99.00
   69.       0.144 0.277 0.440 0.300  -99.  1.50 0.170  23.1  56.1   0.0  -9.0  8.20-99.00 23.10-99.00
   81.       0.144 0.277 0.440 0.300  -99.  1.50 0.170  23.1  56.1   0.0  -9.0  8.20-99.00 23.10-99.00
   95.       0.140 0.272 0.450 0.100  -99.  1.60 0.170  28.7  49.1   0.0  -9.0  8.50-99.00 22.50-99.00
  110.       0.103 0.191 0.490 0.000  -99.  1.60 0.290  21.9  54.2   0.0  -9.0  8.60-99.00 14.30-99.00
  128.       0.035 0.177 0.450 0.000  -99.  1.60 0.170   5.0  63.8   0.0  -9.0  8.90-99.00  6.50-99.00
  145.       0.034 0.183 0.530 0.000  -99.  1.60 0.170  43.0  49.7   0.0  -9.0  8.70-99.00  6.10-99.00
                    
    5.-99.00 -99.0 -99.0 -99.0 -99.0 -99.0 -99.0 -99.0 -99.0 -99.0-99.00 -99.0 -99.0 -99.0 -99.0 -99.0  -99.  -99.
   15.-99.00 -99.0 -99.0 -99.0 -99.0 -99.0 -99.0 -99.0 -99.0 -99.0-99.00 -99.0 -99.0 -99.0 -99.0 -99.0  -99.  -99.
   26.-99.00 -99.0 -99.0 -99.0 -99.0 -99.0 -99.0 -99.0 -99.0 -99.0-99.00 -99.0 -99.0 -99.0 -99.0 -99.0  -99.  -99.
   38.-99.00 -99.0 -99.0 -99.0 -99.0 -99.0 -99.0 -99.0 -99.0 -99.0-99.00 -99.0 -99.0 -99.0 -99.0 -99.0  -99.  -99.
   47.-99.00 -99.0 -99.0 -99.0 -99.0 -99.0 -99.0 -99.0 -99.0 -99.0-99.00 -99.0 -99.0 -99.0 -99.0 -99.0  -99.  -99.
   57.-99.00 -99.0 -99.0 -99.0 -99.0 -99.0 -99.0 -99.0 -99.0 -99.0-99.00 -99.0 -99.0 -99.0 -99.0 -99.0  -99.  -99.
   69.-99.00 -99.0 -99.0 -99.0 -99.0 -99.0 -99.0 -99.0 -99.0 -99.0-99.00 -99.0 -99.0 -99.0 -99.0 -99.0  -99.  -99.
   81.-99.00 -99.0 -99.0 -99.0 -99.0 -99.0 -99.0 -99.0 -99.0 -99.0-99.00 -99.0 -99.0 -99.0 -99.0 -99.0  -99.  -99.
   95.-99.00 -99.0 -99.0 -99.0 -99.0 -99.0 -99.0 -99.0 -99.0 -99.0-99.00 -99.0 -99.0 -99.0 -99.0 -99.0  -99.  -99.
  110.-99.00 -99.0 -99.0 -99.0 -99.0 -99.0 -99.0 -99.0 -99.0 -99.0-99.00 -99.0 -99.0 -99.0 -99.0 -99.0  -99.  -99.
  128.-99.00 -99.0 -99.0 -99.0 -99.0 -99.0 -99.0 -99.0 -99.0 -99.0-99.00 -99.0 -99.0 -99.0 -99.0 -99.0  -99.  -99.
  145.-99.00 -99.0 -99.0 -99.0 -99.0 -99.0 -99.0 -99.0 -99.0 -99.0-99.00 -99.0 -99.0 -99.0 -99.0 -99.0  -99.  -99.
                    
    5.-99.00-99.00-99.00-99.00
   15.-99.00-99.00-99.00-99.00
   26.-99.00-99.00-99.00-99.00
   38.-99.00-99.00-99.00-99.00
   47.-99.00-99.00-99.00-99.00
   57.-99.00-99.00-99.00-99.00
   69.-99.00-99.00-99.00-99.00
   81.-99.00-99.00-99.00-99.00
   95.-99.00-99.00-99.00-99.00
  110.-99.00-99.00-99.00-99.00
  128.-99.00-99.00-99.00-99.00
  145.-99.00-99.00-99.00-99.00
*CULTIVAR           
CP0006 VERDE BRASIL     CP0410 12.80 0.294 33.20  3.50  7.20 31.00 17.00 1.000 260.0 270.0  0.85 0.220  7.00  6.40 32.00  66.5 0.300 0.065
