*MODEL INPUT FILE            B     1     1     1   999     0
*FILES              
MODEL          PTSUB048
FILEX          NYCU8001.PTX                                                                                 
FILEA          NYCU8001.PTA                                                                                 
FILET          NYCU8001.PTT                                                                                 
SPECIES        PTSUB048.SPE C:\DSSAT48\GENOTYPE\                                                            
ECOTYPE        PTSUB048.ECO C:\DSSAT48\GENOTYPE\                                                            
CULTIVAR       PTSUB048.CUL C:\DSSAT48\GENOTYPE\                                                            
PESTS          PTSUB048.PST C:\DSSAT48\PEST\                                                                
SOILS          SOIL.SOL     C:\DSSAT48\SOIL\                                                                
WEATHERW       NYCU8001.WTH C:\DSSAT48\Weather\                                                             
OUTPUT         OVERVIEW
*SIMULATION CONTROL 
                   1     1     S 1980140  2150 New York: model validati 
                   Y     Y     N     N     N     N     N     Y     M
                   M     M     E     R     S     R     R     1     G     R     2     D     0
                   R     A     R     R     R
                   N     Y     Y     1     Y     N     Y     Y     N     N     Y     N     N
!AUTOMATIC MANAGEM  
                   -99     -99   40.  100.   30.   40.   10.
                 50.   80.  100. IB001 IBI01  10.0 1.000
                 30.   50.   25. IB001 IB001
                100.     1   20.
                     0     -99  100.    0.
*EXP.DETAILS        
  1NYCU8001 PT NEW YORK: MODEL VALIDATION, 1980(EWING)                     
*TREATMENTS         
  1 1 0 0 Potato Model validation  
*CULTIVARS          
   PT IB0004 KATHADIN        
*FIELDS             
   NYCU0001 NYCU8001   0.0    0. IB000    0. 100.0 00000 -99      0. IBPT910006-99.00 -99.0
      0.0000000000    0.0000000000     0.000               1.0  100.   1.0   0.0   -99   -99
*INITIAL CONDITIONS 
   PT    1980140  1500     0  1.00  1.00 -99.0  2500  2.67  0.00  100.   15.
      5. 0.220  3.40  9.80
     15. 0.220  3.30  8.55
     25. 0.220  3.20  7.30
     40. 0.220  2.50  5.10
     52. 0.220  2.20  4.70
     65. 0.220  2.20  4.70
*PLANTING DETAILS   
   1980143 1980157   5.1   5.1     S     R   86.    0.  15.0 1020.  -99. -99.0 -99.0   8.0
*IRRIGATION         
   1.000   30.   50.  100. GS000 IR001  10.0
   1980171 IR001  19.0
   1980180 IR001  19.0
   1980183 IR001  19.0
   1980185 IR001  19.0
   1980189 IR001  19.0
   1980193 IR001  19.0
   1980197 IR001  19.0
   1980200 IR001  19.0
   1980204 IR001  19.0
   1980210 IR001  19.0
   1980214 IR001  19.0
*FERTILIZERS        
   1980143 FE002   001   10.  100.    0.    0.    0.    0.   -99
   1980177 FE002   001    5.  175.  -99.  -99.  -99.  -99.   -99
*RESIDUES           
*CHEMICALS          
*TILLAGE            
*ENVIRONMENT        
*HARVEST            
   1980257 GS000   -99   -99  100.    0.
*SOIL               
 IBPT910006  IBSNAT      -99      0.   MONTCALM MICHIGAN  McBRIDE SANDY LOAM           
 -99         -99          -0.009  -0.099 UNKNOWN (  6)                                     
 -99    0.14   5.0  0.60   60.  1.00  1.00 SA001 SA001 SA001 -99  
    5.       0.080 0.220 0.260 0.800  -99.  1.15 2.500 -99.0 -99.0 -99.0  -9.0  7.00-99.00-99.00-99.00
   15.       0.080 0.220 0.260 0.900  -99.  1.17 2.250 -99.0 -99.0 -99.0  -9.0  7.00-99.00-99.00-99.00
   25.       0.080 0.220 0.260 1.000  -99.  1.20 2.000 -99.0 -99.0 -99.0  -9.0  7.00-99.00-99.00-99.00
   40.       0.080 0.220 0.260 0.500  -99.  1.25 1.500 -99.0 -99.0 -99.0  -9.0  7.00-99.00-99.00-99.00
   52.       0.080 0.220 0.260 0.050  -99.  1.25 1.000 -99.0 -99.0 -99.0  -9.0  7.00-99.00-99.00-99.00
   65.       0.080 0.220 0.260 0.050  -99.  1.25 1.000 -99.0 -99.0 -99.0  -9.0  7.00-99.00-99.00-99.00
                    
    5.-99.00 -99.0 -99.0 -99.0 -99.0 -99.0 -99.0 -99.0 -99.0 -99.0-99.00 -99.0 -99.0 -99.0 -99.0 -99.0  -99.  -99.
   15.-99.00 -99.0 -99.0 -99.0 -99.0 -99.0 -99.0 -99.0 -99.0 -99.0-99.00 -99.0 -99.0 -99.0 -99.0 -99.0  -99.  -99.
   25.-99.00 -99.0 -99.0 -99.0 -99.0 -99.0 -99.0 -99.0 -99.0 -99.0-99.00 -99.0 -99.0 -99.0 -99.0 -99.0  -99.  -99.
   40.-99.00 -99.0 -99.0 -99.0 -99.0 -99.0 -99.0 -99.0 -99.0 -99.0-99.00 -99.0 -99.0 -99.0 -99.0 -99.0  -99.  -99.
   52.-99.00 -99.0 -99.0 -99.0 -99.0 -99.0 -99.0 -99.0 -99.0 -99.0-99.00 -99.0 -99.0 -99.0 -99.0 -99.0  -99.  -99.
   65.-99.00 -99.0 -99.0 -99.0 -99.0 -99.0 -99.0 -99.0 -99.0 -99.0-99.00 -99.0 -99.0 -99.0 -99.0 -99.0  -99.  -99.
                    
    5.-99.00-99.00-99.00-99.00
   15.-99.00-99.00-99.00-99.00
   25.-99.00-99.00-99.00-99.00
   40.-99.00-99.00-99.00-99.00
   52.-99.00-99.00-99.00-99.00
   65.-99.00-99.00-99.00-99.00
*CULTIVAR           
IB0004 KATHADIN         IB0001  2000.  25.0   0.5   0.7  20.0
