*MODEL INPUT FILE            B     1     1     1   999     0
*FILES              
MODEL          MZCER048
FILEX          UFGA8201.MZX                                                                                 
FILEA          UFGA8201.MZA                                                                                 
FILET          UFGA8201.MZT                                                                                 
SPECIES        MZCER048.SPE C:\DSSAT48\GENOTYPE\                                                            
ECOTYPE        MZCER048.ECO C:\DSSAT48\GENOTYPE\                                                            
CULTIVAR       MZCER048.CUL C:\DSSAT48\GENOTYPE\                                                            
PESTS          MZCER048.PST C:\DSSAT48\PEST\                                                                
SOILS          SOIL.SOL     C:\DSSAT48\SOIL\                                                                
WEATHERW       UFGA8201.WTH C:\DSSAT48\Weather\                                                             
OUTPUT         OVERVIEW
*SIMULATION CONTROL 
                   1     1     S 1982056  2150 N X IRRIGATION, GAINESVI 
                   Y     Y     N     N     N     N     N     Y     M
                   M     M     E     R     S     R     R     1     G     R     2     D     0
                   R     R     R     N     M
                   N     Y     Y     1     Y     N     Y     Y     N     N     Y     N     Y
!AUTOMATIC MANAGEM  
                   -99     -99   40.  100.   30.   40.   10.
                 30.   50.  100. GS000 IR001  10.0 1.000
                 30.   50.   25. FE001 GS000
                100.     1   20.
                     0     -99  100.    0.
*EXP.DETAILS        
  1UFGA8201 MZ NIT X IRR, GAINESVILLE 2N*3I                                
*TREATMENTS         
  1 1 0 0 RAINFED LOW NITROGEN     
*CULTIVARS          
   MZ IB0035 McCurdy 84aa    
*FIELDS             
   UFGA0002 UFGA8201   0.0    0. DR000    0. 100.0 00000 -99    180. IBMZ910014-99.00 -99.0
     29.6380004883  -82.3688964844    40.000               1.0  100.   1.0   0.0   -99   -99
*INITIAL CONDITIONS 
   MZ    1982056   100     0  1.00  1.00 -99.0  1000  0.80  0.00  100.   15.
      5. 0.086 0.500 0.100
     15. 0.086 0.500 0.100
     30. 0.086 0.500 0.100
     45. 0.086 0.500 0.100
     60. 0.086 0.500 0.100
     90. 0.076 0.600 0.100
    120. 0.076 0.500 0.100
    150. 0.130 0.500 0.100
    180. 0.258 0.500 0.100
*PLANTING DETAILS   
   1982057     -99   7.2   7.2     S     R   61.    0.   7.0  -99.  -99. -99.0 -99.0   0.0
*IRRIGATION         
   1.000   30.   75.  -99. GS000 IR001   0.0
   1982063 IR001  13.0
*FERTILIZERS        
   1982097 FE001 AP001   10.   27.    0.    0.    0.    0.   -99
   1982102 FE001 AP001   10.   35.    0.    0.    0.    0.   -99
   1982137 FE001 AP001   10.   54.    0.    0.    0.    0.   -99
*RESIDUES           
*CHEMICALS          
*TILLAGE            
*ENVIRONMENT        
*HARVEST            
*SOIL               
 IBMZ910014  Gainesville -99    180.   Millhopper Fine Sand                            
 Gainesville USA          29.600 -82.370 Loamy,silic,hyperth Arenic Paleudult              
 -99    0.18   2.0  0.65   60.  1.00  0.92 IB001 IB001 IB001 -99  
    5.       0.026 0.096 0.230 1.000  -99.  1.30 2.000 -99.0 -99.0 -99.0  -9.0  7.00-99.00 20.00-99.00
   15.       0.025 0.086 0.230 1.000  -99.  1.30 1.000 -99.0 -99.0 -99.0  -9.0  7.00-99.00-99.00-99.00
   30.       0.025 0.086 0.230 0.700  -99.  1.40 1.000 -99.0 -99.0 -99.0  -9.0  7.00-99.00-99.00-99.00
   45.       0.025 0.086 0.230 0.300  -99.  1.40 0.500 -99.0 -99.0 -99.0  -9.0  7.00-99.00-99.00-99.00
   60.       0.025 0.086 0.230 0.300  -99.  1.40 0.500 -99.0 -99.0 -99.0  -9.0  7.00-99.00-99.00-99.00
   90.       0.028 0.090 0.230 0.050  -99.  1.45 0.100 -99.0 -99.0 -99.0  -9.0  7.00-99.00-99.00-99.00
  120.       0.028 0.090 0.230 0.030  -99.  1.45 0.100 -99.0 -99.0 -99.0  -9.0  7.00-99.00-99.00-99.00
  150.       0.029 0.130 0.230 0.002  -99.  1.45 0.040 -99.0 -99.0 -99.0  -9.0  7.00-99.00-99.00-99.00
  180.       0.070 0.258 0.360 0.000  -99.  1.20 0.240 -99.0 -99.0 -99.0  -9.0  7.00-99.00-99.00-99.00
                    
    5.-99.00 -99.0 -99.0 -99.0 -99.0 -99.0 -99.0 -99.0 -99.0 -99.0-99.00 -99.0 -99.0 -99.0 -99.0 -99.0  -99.  -99.
   15.-99.00 -99.0 -99.0 -99.0 -99.0 -99.0 -99.0 -99.0 -99.0 -99.0-99.00 -99.0 -99.0 -99.0 -99.0 -99.0  -99.  -99.
   30.-99.00 -99.0 -99.0 -99.0 -99.0 -99.0 -99.0 -99.0 -99.0 -99.0-99.00 -99.0 -99.0 -99.0 -99.0 -99.0  -99.  -99.
   45.-99.00 -99.0 -99.0 -99.0 -99.0 -99.0 -99.0 -99.0 -99.0 -99.0-99.00 -99.0 -99.0 -99.0 -99.0 -99.0  -99.  -99.
   60.-99.00 -99.0 -99.0 -99.0 -99.0 -99.0 -99.0 -99.0 -99.0 -99.0-99.00 -99.0 -99.0 -99.0 -99.0 -99.0  -99.  -99.
   90.-99.00 -99.0 -99.0 -99.0 -99.0 -99.0 -99.0 -99.0 -99.0 -99.0-99.00 -99.0 -99.0 -99.0 -99.0 -99.0  -99.  -99.
  120.-99.00 -99.0 -99.0 -99.0 -99.0 -99.0 -99.0 -99.0 -99.0 -99.0-99.00 -99.0 -99.0 -99.0 -99.0 -99.0  -99.  -99.
  150.-99.00 -99.0 -99.0 -99.0 -99.0 -99.0 -99.0 -99.0 -99.0 -99.0-99.00 -99.0 -99.0 -99.0 -99.0 -99.0  -99.  -99.
  180.-99.00 -99.0 -99.0 -99.0 -99.0 -99.0 -99.0 -99.0 -99.0 -99.0-99.00 -99.0 -99.0 -99.0 -99.0 -99.0  -99.  -99.
                    
    5.-99.00-99.00-99.00-99.00
   15.-99.00-99.00-99.00-99.00
   30.-99.00-99.00-99.00-99.00
   45.-99.00-99.00-99.00-99.00
   60.-99.00-99.00-99.00-99.00
   90.-99.00-99.00-99.00-99.00
  120.-99.00-99.00-99.00-99.00
  150.-99.00-99.00-99.00-99.00
  180.-99.00-99.00-99.00-99.00
*CULTIVAR           
IB0035 McCurdy 84aa     IB0001  259.0 1.193 947.1 924.3  8.17 43.00
