*MODEL INPUT FILE            B     1     1     1   999     0
*FILES              
MODEL          CRGRO048
FILEX          SASK0202.LTX                                                                                 
FILEA          SASK0202.LTA                                                                                 
FILET          SASK0202.LTT                                                                                 
SPECIES        LTGRO048.SPE C:\DSSAT48\GENOTYPE\                                                            
ECOTYPE        LTGRO048.ECO C:\DSSAT48\GENOTYPE\                                                            
CULTIVAR       LTGRO048.CUL C:\DSSAT48\GENOTYPE\                                                            
PESTS          LTGRO048.PST C:\DSSAT48\PEST\                                                                
SOILS          CF.SOL       C:\DSSAT48\SOIL\                                                                
WEATHERW       SA068135.WTH C:\DSSAT48\Weather\                                                             
OUTPUT         OVERVIEW
*SIMULATION CONTROL 
                   1     1     S 2002001  2150 2019 SIMULATION          
                   Y     Y     Y     N     N     N     N     N     M
                   M     M     E     F     S     L     R     1     P     R     2     D     0
                   R     R     R     N     M
                   N     Y     Y     1     Y     Y     Y     Y     N     N     Y     N     N
!AUTOMATIC MANAGEM  
                   -99     -99   40.  100.   30.   40.   10.
                 30.   50.  100. GS000 IR001  10.0 1.000
                 30.   50.   25. FE001 GS000
                100.     1   20.
                     0     -99  100.    0.
*EXP.DETAILS        
  1SASK0202 LT RAINFED AT SASKATOON AND OUTLOOK 2002                       
*TREATMENTS         
  1 0 0 0 Saskatoon 60             
*CULTIVARS          
   LT CAND04 CDC Maximim     
*FIELDS             
   SASK0001 SA068135   0.0    0.   -99    0. 100.0    0S SIL    150. CFSK089943-99.00 -99.0
   -106.6999969482   51.7999992371    90.000               1.0  100.   1.0   0.0 FH101   -99
*INITIAL CONDITIONS 
   WH    2002001     0     0  1.00  1.00 -99.0  3000  0.00  0.00   20.   15.
      5. 0.300 0.100  1.60
     15. 0.300 0.100  1.50
     27. 0.300 0.158  1.34
     40. 0.300 0.200  1.30
     52. 0.300 0.200  1.30
     76. 0.300 0.200  1.17
    100. 0.300 0.200  1.10
    125. 0.300 0.200  1.10
    150. 0.300 0.200  1.10
*PLANTING DETAILS   
   2002149     -99  60.0  51.0     S     R   14.  -99.   3.0  -99.  -99. -99.0 -99.0   0.0
*IRRIGATION         
   1.000    0.    0.    0. GS000 IR001   0.0
*FERTILIZERS        
*RESIDUES           
*CHEMICALS          
*TILLAGE            
*ENVIRONMENT        
*HARVEST            
*SOIL               
 CFSK089943  SK GHX  J N SIL    150.   HUMIC GLEYSOL        !for Saskatoon,CA    black 
 SK GHX  J N Canada       -0.009  -0.099 GL  HG   -                                        
 BL     0.09  10.0  0.05   73.  1.00  1.00 IB001 IB001 IB001 -99  
    5.       0.150 0.270 0.510 1.000  5.30  1.30 3.500  28.0  30.0   0.0  -9.0  7.00  6.40 17.00-99.00
   15.       0.152 0.278 0.496 0.904  5.21  1.32 2.980  28.8  30.0   0.0  -9.0  7.00  6.48 16.60-99.00
   27.       0.160 0.310 0.440 0.522  4.85  1.40 0.900  32.0  30.0   0.0  -9.0  7.00  6.80 15.00-99.00
   40.       0.160 0.310 0.440 0.522  4.85  1.40 0.900  32.0  30.0   0.0  -9.0  7.00  6.80 15.00-99.00
   52.       0.160 0.310 0.440 0.522  4.85  1.40 0.900  32.0  30.0   0.0  -9.0  7.00  6.80 15.00-99.00
   76.       0.160 0.280 0.430 0.219  6.18  1.50 0.300  32.0  30.0   0.0  -9.0  7.00  7.70 14.00-99.00
  100.       0.160 0.280 0.430 0.219  6.18  1.50 0.300  32.0  30.0   0.0  -9.0  7.00  7.70 14.00-99.00
  125.       0.160 0.280 0.430 0.219  6.18  1.50 0.300  32.0  30.0   0.0  -9.0  7.00  7.70 14.00-99.00
  150.       0.160 0.280 0.430 0.219  6.18  1.50 0.300  32.0  30.0   0.0  -9.0  7.00  7.70 14.00-99.00
                    
    5.-99.00 -99.0 -99.0 -99.0 -99.0 -99.0 -99.0 -99.0 -99.0 -99.0-99.00 -99.0 -99.0 -99.0 -99.0 -99.0  -99.  -99.
   15.-99.00 -99.0 -99.0 -99.0 -99.0 -99.0 -99.0 -99.0 -99.0 -99.0-99.00 -99.0 -99.0 -99.0 -99.0 -99.0  -99.  -99.
   27.-99.00 -99.0 -99.0 -99.0 -99.0 -99.0 -99.0 -99.0 -99.0 -99.0-99.00 -99.0 -99.0 -99.0 -99.0 -99.0  -99.  -99.
   40.-99.00 -99.0 -99.0 -99.0 -99.0 -99.0 -99.0 -99.0 -99.0 -99.0-99.00 -99.0 -99.0 -99.0 -99.0 -99.0  -99.  -99.
   52.-99.00 -99.0 -99.0 -99.0 -99.0 -99.0 -99.0 -99.0 -99.0 -99.0-99.00 -99.0 -99.0 -99.0 -99.0 -99.0  -99.  -99.
   76.-99.00 -99.0 -99.0 -99.0 -99.0 -99.0 -99.0 -99.0 -99.0 -99.0-99.00 -99.0 -99.0 -99.0 -99.0 -99.0  -99.  -99.
  100.-99.00 -99.0 -99.0 -99.0 -99.0 -99.0 -99.0 -99.0 -99.0 -99.0-99.00 -99.0 -99.0 -99.0 -99.0 -99.0  -99.  -99.
  125.-99.00 -99.0 -99.0 -99.0 -99.0 -99.0 -99.0 -99.0 -99.0 -99.0-99.00 -99.0 -99.0 -99.0 -99.0 -99.0  -99.  -99.
  150.-99.00 -99.0 -99.0 -99.0 -99.0 -99.0 -99.0 -99.0 -99.0 -99.0-99.00 -99.0 -99.0 -99.0 -99.0 -99.0  -99.  -99.
                    
    5.-99.00-99.00-99.00-99.00
   15.-99.00-99.00-99.00-99.00
   27.-99.00-99.00-99.00-99.00
   40.-99.00-99.00-99.00-99.00
   52.-99.00-99.00-99.00-99.00
   76.-99.00-99.00-99.00-99.00
  100.-99.00-99.00-99.00-99.00
  125.-99.00-99.00-99.00-99.00
  150.-99.00-99.00-99.00-99.00
*CULTIVAR           
CAND04 CDC Maximim      LAT001 15.80-0.110 26.50  7.50 10.00 21.00 20.00 1.000 220.0  70.0  1.00 0.044 20.00  1.30 14.00  69.0 0.286 0.020
