*MODEL INPUT FILE            B     1     1     1   999     0
*FILES              
MODEL          CRGRO048
FILEX          MONT1903.LTX                                                                                 
FILEA          MONT1903.LTA                                                                                 
FILET          MONT1903.LTT                                                                                 
SPECIES        LTGRO048.SPE C:\DSSAT48\GENOTYPE\                                                            
ECOTYPE        LTGRO048.ECO C:\DSSAT48\GENOTYPE\                                                            
CULTIVAR       LTGRO048.CUL C:\DSSAT48\GENOTYPE\                                                            
PESTS          LTGRO048.PST C:\DSSAT48\PEST\                                                                
SOILS          CF.SOL       C:\DSSAT48\SOIL\                                                                
WEATHERW       POST1903.WTH C:\DSSAT48\Weather\                                                             
OUTPUT         OVERVIEW
*SIMULATION CONTROL 
                   1     1     S 2019001  2150 2019 SIMULATION          
                   Y     Y     Y     N     N     N     N     N     M
                   M     M     E     F     S     L     R     1     P     R     2     D     0
                   R     R     R     N     M
                   N     Y     Y     1     Y     Y     Y     Y     N     N     Y     N     N
!AUTOMATIC MANAGEM  
                   -99     -99   40.  100.   30.   40.   10.
                 30.   50.  100. GS000 IR001  10.0 1.000
                 30.   50.   25. FE001 GS000
                100.     1   20.
                     0     -99  100.    0.
*EXP.DETAILS        
  1MONT1903 LT RAINFED AT MONTANA 2019-2021                                
*TREATMENTS         
  1 0 0 0 Post, Montana 2019       
*CULTIVARS          
   LT CAND04 CDC Maximim     
*FIELDS             
   MONT0001 POST1903   0.0    0.   -99    0. 100.0    0S SIL    150. CF_MONT001-99.00 -99.0
   -107.3000030518   50.2799987793    90.000               1.0  100.   1.0   0.0 FH101   -99
*INITIAL CONDITIONS 
   WH    2019001     0     0  1.00  1.00 -99.0     0  0.00  0.00  100.   15.
      5. 0.300 0.100  1.60
     15. 0.300 0.100  1.50
     20. 0.300 0.100  1.40
     30. 0.300 0.200  1.30
     60. 0.300 0.200  1.30
     90. 0.300 0.200  1.10
    120. 0.300 0.200  1.10
    150. 0.300 0.200  1.10
*PLANTING DETAILS   
   2019127     -99 150.0 150.0     S     R   23.  -99.   5.1  -99.  -99. -99.0 -99.0   0.0
*IRRIGATION         
   1.000    0.    0.    0. GS000 IR001   0.0
*FERTILIZERS        
*RESIDUES           
*CHEMICALS          
*TILLAGE            
*ENVIRONMENT        
*HARVEST            
*SOIL               
 CF_MONT001  CAL LTAR    SIL    150.   Calculated from CAF plot data                   
 ost, MONT   USA          45.600-111.150 -99                                               
 BK     0.17   6.0  0.50   61.  1.00  1.00 SA001 SA001 SA001 -99  
    5.       0.147 0.378 0.476 1.000 0.680  1.27 2.600  10.0  65.0   0.0 0.160  7.70-99.00-99.00-99.00
   15.       0.147 0.378 0.476 1.000 0.680  1.27 2.600  10.0  65.0   0.0 0.145  7.70-99.00-99.00-99.00
   20.       0.147 0.378 0.476 1.000 0.680  1.27 2.600  10.0  65.0   0.0 0.130  7.70-99.00-99.00-99.00
   30.       0.147 0.378 0.476 0.607 0.680  1.27 2.600  10.0  65.0   0.0 0.090  7.70-99.00-99.00-99.00
   60.       0.147 0.378 0.402 0.165 0.680  1.47 2.600  10.0  65.0   0.0 0.050  7.70-99.00-99.00-99.00
   90.       0.147 0.378 0.402 0.165 0.680  1.47 2.600  10.0  65.0   0.0 0.050  7.70-99.00-99.00-99.00
  120.       0.147 0.378 0.402 0.165 0.680  1.47 2.600  10.0  65.0   0.0 0.050  7.70-99.00-99.00-99.00
  150.       0.147 0.378 0.402 0.165 0.680  1.47 2.600  10.0  65.0   0.0 0.050  7.70-99.00-99.00-99.00
                    
    5.-99.00 -99.0 -99.0 -99.0 -99.0 -99.0 -99.0 -99.0 -99.0 -99.0-99.00 -99.0 -99.0 -99.0 -99.0 -99.0  -99.  -99.
   15.-99.00 -99.0 -99.0 -99.0 -99.0 -99.0 -99.0 -99.0 -99.0 -99.0-99.00 -99.0 -99.0 -99.0 -99.0 -99.0  -99.  -99.
   20.-99.00 -99.0 -99.0 -99.0 -99.0 -99.0 -99.0 -99.0 -99.0 -99.0-99.00 -99.0 -99.0 -99.0 -99.0 -99.0  -99.  -99.
   30.-99.00 -99.0 -99.0 -99.0 -99.0 -99.0 -99.0 -99.0 -99.0 -99.0-99.00 -99.0 -99.0 -99.0 -99.0 -99.0  -99.  -99.
   60.-99.00 -99.0 -99.0 -99.0 -99.0 -99.0 -99.0 -99.0 -99.0 -99.0-99.00 -99.0 -99.0 -99.0 -99.0 -99.0  -99.  -99.
   90.-99.00 -99.0 -99.0 -99.0 -99.0 -99.0 -99.0 -99.0 -99.0 -99.0-99.00 -99.0 -99.0 -99.0 -99.0 -99.0  -99.  -99.
  120.-99.00 -99.0 -99.0 -99.0 -99.0 -99.0 -99.0 -99.0 -99.0 -99.0-99.00 -99.0 -99.0 -99.0 -99.0 -99.0  -99.  -99.
  150.-99.00 -99.0 -99.0 -99.0 -99.0 -99.0 -99.0 -99.0 -99.0 -99.0-99.00 -99.0 -99.0 -99.0 -99.0 -99.0  -99.  -99.
                    
    5.-99.00-99.00-99.00-99.00
   15.-99.00-99.00-99.00-99.00
   20.-99.00-99.00-99.00-99.00
   30.-99.00-99.00-99.00-99.00
   60.-99.00-99.00-99.00-99.00
   90.-99.00-99.00-99.00-99.00
  120.-99.00-99.00-99.00-99.00
  150.-99.00-99.00-99.00-99.00
*CULTIVAR           
CAND04 CDC Maximim      LAT001 15.80-0.110 26.50  7.50 10.00 21.00 20.00 1.000 220.0  70.0  1.00 0.044 20.00  1.30 14.00  69.0 0.286 0.020
