*MODEL INPUT FILE            B     1     1     1   999     0
*FILES              
MODEL          CRGRO048
FILEX          UFGW8901.SBX                                                                                 
FILEA          UFGW8901.SBA                                                                                 
FILET          UFGW8901.SBT                                                                                 
SPECIES        SBGRO048.SPE C:\DSSAT48\GENOTYPE\                                                            
ECOTYPE        SBGRO048.ECO C:\DSSAT48\GENOTYPE\                                                            
CULTIVAR       SBGRO048.CUL C:\DSSAT48\GENOTYPE\                                                            
PESTS          SBGRO048.PST C:\DSSAT48\PEST\                                                                
SOILS          SOIL.SOL     C:\DSSAT48\SOIL\                                                                
WEATHERW       UFGW8901.WTH C:\DSSAT48\Weather\                                                             
OUTPUT         OVERVIEW
*SIMULATION CONTROL 
                   1     1     S 1989129  2150 CRAWFORD, IRRIG LEFLORE, 
                   Y     Y     Y     N     N     N     N     Y     M
                   M     M     E     R     S     L     R     1     G     R     2     D     0
                   R     R     R     R     M
                   N     Y     Y     1     Y     N     Y     Y     N     N     Y     N     N
!AUTOMATIC MANAGEM  
                   -99     -99   40.  100.   30.   40.   10.
                 30.   50.  100. GS000 IR001  10.0 0.750
                 30.   50.   25. FE001 GS000
                100.     1   20.
                     0     -99  100.    0.
*EXP.DETAILS        
  1UFGW8901 SB CRAWFORD, IRRIG LEFLORE, GREENWOOD                          
*TREATMENTS         
  1 1 1 0 89 IRR ONFARM CRAWFORD   
*CULTIVARS          
   SB IB0044 COKER 6847 (7)  
*FIELDS             
   UFGW0001 UFGW8901   0.0    0. DR000    0. 100.0 00000 -99    190. IBSB910055-99.00 -99.0
    -99.0000000000  -99.0000000000   -99.000               1.0  100.   1.0 -99.0   -99   -99
*INITIAL CONDITIONS 
   SB    1989129   100     0  1.00  1.00 -99.0     0  0.00  0.00  100.    0.
      5. 0.105 0.600  1.50
     15. 0.105 0.600  1.50
     30. 0.099 0.600  1.50
     45. 0.099 0.600  1.50
     60. 0.099 0.600  1.50
     90. 0.092 0.600 0.600
    120. 0.092 0.600 0.500
    145. 0.096 0.600 0.500
    167. 0.151 0.600 0.500
    190. 0.151 0.600 0.500
*PLANTING DETAILS   
   1989129     -99  29.9  29.9     S     R   91.    0.   4.0  -99.  -99. -99.0 -99.0 -99.0
*IRRIGATION         
   1.000   30.   75.  -99. GS000 IR001   0.0
   1989134 IR001   8.0
   1989216 IR001  22.0
   1989233 IR001  18.0
*FERTILIZERS        
*RESIDUES           
   1989129 IB001  1000  0.80  0.00  0.00  100.   15.   -99
*CHEMICALS          
*TILLAGE            
*ENVIRONMENT        
*HARVEST            
*SOIL               
 IBSB910055  Troup SCS   -99    190.   TROUP FINE SAND                                 
 Jackson CO  USA          -0.009  -0.099 TROUP, SCS JACKSON CO, GROSSARENIC PALEUDULT, L,  
 -99    0.13   6.2  0.60   76.  1.00  0.92 SA001 SA001 SA001 -99  
    5.       0.033 0.105 0.314 1.000  -99.  1.56 0.640 -99.0 -99.0 -99.0  -9.0  5.80-99.00-99.00-99.00
   15.       0.033 0.105 0.314 1.000  -99.  1.56 0.640 -99.0 -99.0 -99.0  -9.0  5.80-99.00-99.00-99.00
   30.       0.031 0.099 0.313 0.927  -99.  1.56 0.190 -99.0 -99.0 -99.0  -9.0  5.90-99.00-99.00-99.00
   45.       0.031 0.099 0.313 0.229  -99.  1.56 0.190 -99.0 -99.0 -99.0  -9.0  5.90-99.00-99.00-99.00
   60.       0.031 0.099 0.313 0.060  -99.  1.56 0.190 -99.0 -99.0 -99.0  -9.0  5.90-99.00-99.00-99.00
   90.       0.029 0.092 0.315 0.016  -99.  1.60 0.050 -99.0 -99.0 -99.0  -9.0  5.40-99.00-99.00-99.00
  120.       0.029 0.092 0.315 0.011  -99.  1.60 0.050 -99.0 -99.0 -99.0  -9.0  5.40-99.00-99.00-99.00
  145.       0.030 0.096 0.316 0.006  -99.  1.60 0.040 -99.0 -99.0 -99.0  -9.0  5.10-99.00-99.00-99.00
  167.       0.047 0.151 0.357 0.000  -99.  1.56 0.100 -99.0 -99.0 -99.0  -9.0  5.20-99.00-99.00-99.00
  190.       0.047 0.151 0.357 0.000  -99.  1.56 0.100 -99.0 -99.0 -99.0  -9.0  5.20-99.00-99.00-99.00
                    
    5.-99.00 -99.0 -99.0 -99.0 -99.0 -99.0 -99.0 -99.0 -99.0 -99.0-99.00 -99.0 -99.0 -99.0 -99.0 -99.0  -99.  -99.
   15.-99.00 -99.0 -99.0 -99.0 -99.0 -99.0 -99.0 -99.0 -99.0 -99.0-99.00 -99.0 -99.0 -99.0 -99.0 -99.0  -99.  -99.
   30.-99.00 -99.0 -99.0 -99.0 -99.0 -99.0 -99.0 -99.0 -99.0 -99.0-99.00 -99.0 -99.0 -99.0 -99.0 -99.0  -99.  -99.
   45.-99.00 -99.0 -99.0 -99.0 -99.0 -99.0 -99.0 -99.0 -99.0 -99.0-99.00 -99.0 -99.0 -99.0 -99.0 -99.0  -99.  -99.
   60.-99.00 -99.0 -99.0 -99.0 -99.0 -99.0 -99.0 -99.0 -99.0 -99.0-99.00 -99.0 -99.0 -99.0 -99.0 -99.0  -99.  -99.
   90.-99.00 -99.0 -99.0 -99.0 -99.0 -99.0 -99.0 -99.0 -99.0 -99.0-99.00 -99.0 -99.0 -99.0 -99.0 -99.0  -99.  -99.
  120.-99.00 -99.0 -99.0 -99.0 -99.0 -99.0 -99.0 -99.0 -99.0 -99.0-99.00 -99.0 -99.0 -99.0 -99.0 -99.0  -99.  -99.
  145.-99.00 -99.0 -99.0 -99.0 -99.0 -99.0 -99.0 -99.0 -99.0 -99.0-99.00 -99.0 -99.0 -99.0 -99.0 -99.0  -99.  -99.
  167.-99.00 -99.0 -99.0 -99.0 -99.0 -99.0 -99.0 -99.0 -99.0 -99.0-99.00 -99.0 -99.0 -99.0 -99.0 -99.0  -99.  -99.
  190.-99.00 -99.0 -99.0 -99.0 -99.0 -99.0 -99.0 -99.0 -99.0 -99.0-99.00 -99.0 -99.0 -99.0 -99.0 -99.0  -99.  -99.
                    
    5.-99.00-99.00-99.00-99.00
   15.-99.00-99.00-99.00-99.00
   30.-99.00-99.00-99.00-99.00
   45.-99.00-99.00-99.00-99.00
   60.-99.00-99.00-99.00-99.00
   90.-99.00-99.00-99.00-99.00
  120.-99.00-99.00-99.00-99.00
  145.-99.00-99.00-99.00-99.00
  167.-99.00-99.00-99.00-99.00
  190.-99.00-99.00-99.00-99.00
*CULTIVAR           
IB0044 COKER 6847 (7)   SB0701 12.35 0.319 20.10  9.00 14.80 36.50 18.00 1.030 345.0 180.0  1.00 0.170 23.00  2.05 10.00  78.0 0.400 0.200
