*MODEL INPUT FILE            B     1     1     1   999     0
*FILES              
MODEL          CRGRO048
FILEX          GHWA0205.PNX                                                                                 
FILEA          GHWA0205.PNA                                                                                 
FILET          GHWA0205.PNT                                                                                 
SPECIES        PNGRO048.SPE C:\DSSAT48\GENOTYPE\                                                            
ECOTYPE        PNGRO048.ECO C:\DSSAT48\GENOTYPE\                                                            
CULTIVAR       PNGRO048.CUL C:\DSSAT48\GENOTYPE\                                                            
PESTS          PNGRO048.PST C:\DSSAT48\PEST\                                                                
SOILS          GH.SOL       C:\DSSAT48\SOIL\                                                                
WEATHERW       GHWA0201.WTH C:\DSSAT48\Weather\                                                             
OUTPUT         OVERVIEW
*SIMULATION CONTROL 
                   1     1     S 2002152  2150 DISEASE                  
                   Y     Y     Y     Y     N     Y     N     N     M
                   M     M     E     R     S     L     R     1     P     R     2     D     0
                   R     N     R     N     M
                   N     Y     Y     1     Y     Y     Y     Y     Y     Y     Y     N     Y
!AUTOMATIC MANAGEM  
                   -99     -99   40.  100.   30.   40.   10.
                 30.   50.  100. GS000 IR001  10.0 1.000
                 30.   50.   25. FE001 GS000
                100.     1   20.
                     0     -99  100.    0.
*EXP.DETAILS        
  1GHWA0205 PN 2002 FUNGICIDE X PHOSPHORUS EXPT GHANA                      
*TREATMENTS         
  1 1 1 0 P0F0 dis "on" PCLA-PDLA  
*CULTIVARS          
   PN GH0001 CHINESE TMV2 TAM
*FIELDS             
   BAMAHU02 GHWA0201   0.0  -99.   -99  -99. 100.0   -99 SL      90. GHWA020001-99.00 -99.0
     -2.0000000000    9.9449996948   380.000            1024.0 3200.   1.0 -99.0   -99   -99
*INITIAL CONDITIONS 
   99    2002191   500     0  1.00  1.00 -99.0  1000  1.50  0.25  100.    0.
      5. 0.156 0.100 0.100
     15. 0.166 0.100 0.100
     30. 0.188 0.100 0.100
     45. 0.207 0.100 0.100
     60. 0.188 0.100 0.100
     75. 0.138 0.100 0.100
     90. 0.134 0.100 0.100
*PLANTING DETAILS   
   2002191 2002197  20.0  20.0     S     R   50.  -99.   5.0  -99.  -99. -99.0 -99.0 -99.0
*IRRIGATION         
   1.000    0.    0.    0. GS000 IR001   0.0
*FERTILIZERS        
*RESIDUES           
*CHEMICALS          
*TILLAGE            
*ENVIRONMENT        
*HARVEST            
      2288 GS011     H     A  100.    0.
*SOIL               
 GHWA020001  -99  usedV4 SL      90. BAMAHU SOIL SERIES                                
 WA          GHANA        -0.002   0.010 -99                                               
 BN     0.13   6.0  0.40   61.  1.00  0.88 IB001 SA002 IB001 -99  
    5.       0.088 0.156 0.387 1.000  2.59  1.45 0.380   6.7   9.5   9.0 0.060  6.20-99.00  3.30-99.00
   15.       0.092 0.166 0.375 1.000  2.59  1.45 0.380   6.5   9.5  11.8 0.060  6.20-99.00  3.30-99.00
   30.       0.125 0.188 0.353 0.800  2.43  1.48 0.350   6.5   8.8  14.9 0.050  6.20-99.00  3.30-99.00
   45.       0.125 0.207 0.314 0.550  2.43  1.50 0.350   7.5   9.8  23.2 0.040  6.20-99.00  3.30-99.00
   60.       0.127 0.188 0.378 0.450  2.43  1.50 0.350   8.5  10.0  32.0 0.030  6.20-99.00  2.50-99.00
   75.       0.096 0.138 0.327 0.350  2.43  1.50 0.340   8.3  10.1  44.7 0.020  6.20-99.00  2.00-99.00
   90.       0.097 0.134 0.384 0.200  2.12  1.50 0.340   9.3  10.5  55.2 0.010  6.20-99.00  1.80-99.00
                    
    5.  3.67 -99.0 -99.0 -99.0 -99.0 -99.0 -99.0 -99.0 -99.0 -99.0  0.10 -99.0 -99.0 -99.0 -99.0 -99.0  -99.  -99.
   15.  3.44 -99.0 -99.0 -99.0 -99.0 -99.0 -99.0 -99.0 -99.0 -99.0  0.10 -99.0 -99.0 -99.0 -99.0 -99.0  -99.  -99.
   30.  3.51 -99.0 -99.0 -99.0 -99.0 -99.0 -99.0 -99.0 -99.0 -99.0  0.10 -99.0 -99.0 -99.0 -99.0 -99.0  -99.  -99.
   45.  2.87 -99.0 -99.0 -99.0 -99.0 -99.0 -99.0 -99.0 -99.0 -99.0  0.10 -99.0 -99.0 -99.0 -99.0 -99.0  -99.  -99.
   60.  1.82 -99.0 -99.0 -99.0 -99.0 -99.0 -99.0 -99.0 -99.0 -99.0  0.10 -99.0 -99.0 -99.0 -99.0 -99.0  -99.  -99.
   75.  0.90 -99.0 -99.0 -99.0 -99.0 -99.0 -99.0 -99.0 -99.0 -99.0  0.10 -99.0 -99.0 -99.0 -99.0 -99.0  -99.  -99.
   90.  0.85 -99.0 -99.0 -99.0 -99.0 -99.0 -99.0 -99.0 -99.0 -99.0  0.10 -99.0 -99.0 -99.0 -99.0 -99.0  -99.  -99.
                    
    5.-99.00-99.00-99.00-99.00
   15.-99.00-99.00-99.00-99.00
   30.-99.00-99.00-99.00-99.00
   45.-99.00-99.00-99.00-99.00
   60.-99.00-99.00-99.00-99.00
   75.-99.00-99.00-99.00-99.00
   90.-99.00-99.00-99.00-99.00
*CULTIVAR           
GH0001 CHINESE TMV2 TAM PN0019 11.84 0.000 18.00  7.00 17.50 53.00 73.00 1.200 270.0  20.0  0.72 0.360 29.00  1.65 15.00  74.5 0.270 0.510
