*MODEL INPUT FILE            B     1     1     1   999     0
*FILES              
MODEL          CRGRO048
FILEX          UCEA7801.SBX                                                                                 
FILEA          UCEA7801.SBA                                                                                 
FILET          UCEA7801.SBT                                                                                 
SPECIES        SBGRO048.SPE C:\DSSAT48\GENOTYPE\                                                            
ECOTYPE        SBGRO048.ECO C:\DSSAT48\GENOTYPE\                                                            
CULTIVAR       SBGRO048.CUL C:\DSSAT48\GENOTYPE\                                                            
PESTS          SBGRO048.PST C:\DSSAT48\PEST\                                                                
SOILS          UC.SOL       C:\DSSAT48\SOIL\                                                                
WEATHERW       UCEA7801.WTH C:\DSSAT48\Weather\                                                             
OUTPUT         OVERVIEW
*SIMULATION CONTROL 
                   1     1     S 1978146  2150 UCEA CULTIVARS CANADA    
                   N     N     N     N     N     N     N     Y     M
                   M     M     E     R     S     L     R     1     G     R     2     D     0
                   R     R     R     R     M
                   N     Y     Y     1     Y     Y     Y     N     N     N     Y     N     N
!AUTOMATIC MANAGEM  
                   -99     -99   40.  100.   30.   40.   10.
                 30.   70.  100. IB001 IB001  10.0 0.750
                 30.   50.   25. IB001 IB001
                100.     1   20.
                     0     -99  100.    0.
*EXP.DETAILS        
  1UCEA7801 SB 3 CULTIVARS, MUST HAVE W AND N "OFF"                        
*TREATMENTS         
  1 1 1 0 C1 Altona                
*CULTIVARS          
   SB UC0001 ALTONA (00)     
*FIELDS             
   UCEA0023 UCEA7801   5.0    0.     2  100.  15.0    5S SICY   125. UCEA880001-99.00 -99.0
    -99.0000000000  -99.0000000000   -99.000               1.0  100.   1.0 -99.0   -99   -99
*INITIAL CONDITIONS 
   SB    1977135   470   -99  1.00  1.00 -99.0   -99 -9.00 -9.00  -99.  -99.
      5. 0.280   0.0   0.0
     15. 0.280   0.0   0.0
     30. 0.280   0.0   0.0
     45. 0.270   0.0   0.0
     60. 0.270   0.0   0.0
     90. 0.250   0.0   0.0
    120. 0.240   0.0   0.0
    150. 0.230   0.0   0.0
*PLANTING DETAILS   
   1978146     -99  40.0  40.0     S     R   18.    0.   4.0   90.  -99. -99.0 -99.0 -99.0
*IRRIGATION         
   1.000    0.    0.    0. GS000 IR001   0.0
*FERTILIZERS        
   1978150     1     2    5.   17.   76.   76.  -99.  -99.   -99
*RESIDUES           
   1978146 RE001  1000  0.50  0.00  0.00  100.   15.   -99
*CHEMICALS          
*TILLAGE            
*ENVIRONMENT        
*HARVEST            
*SOIL               
 UCEA880001  UOGUELPH    SICY   125. LONDON;GLEYED ORTHIC MELANIC BRUNISOL             
 ELORA       CANADA       43.400  80.250 Loam,Eutrochrept or Hapludoll                     
 -99    0.13  12.0  0.12   84.  1.00  1.00 -99   -99   -99   -99  
    5.       0.150 0.280 0.310 1.000  -99.  1.10 2.600  12.2  45.7 -99.0 -99.0  6.90-99.00 18.20-99.00
   15.       0.150 0.280 0.310 1.000  -99.  1.10 2.600  12.2  45.7 -99.0 -99.0  6.90-99.00 18.20-99.00
   30.       0.150 0.280 0.310 0.740  -99.  1.40 0.600  15.0  38.9 -99.0 -99.0  7.30-99.00 10.70-99.00
   45.       0.140 0.270 0.310 0.550  -99.  1.60 0.560  18.0  34.2 -99.0 -99.0  7.50-99.00 11.80-99.00
   60.       0.140 0.270 0.420 0.410  -99.  1.80 0.040  12.6  28.4 -99.0 -99.0  8.00-99.00  3.90-99.00
   90.       0.140 0.250 0.410 0.260  -99.  1.90 0.040  14.4  37.8 -99.0 -99.0  8.00-99.00  2.70-99.00
  120.       0.140 0.240 0.410 0.140  -99.  1.90 0.040  14.4  37.8 -99.0 -99.0  8.00-99.00  2.70-99.00
  150.       0.140 0.230 0.410 0.080  -99.  1.90 0.040  14.1  37.8 -99.0 -99.0  8.00-99.00  2.70-99.00
                    
    5.-99.00 -99.0 -99.0 -99.0 -99.0 -99.0 -99.0 -99.0 -99.0 -99.0-99.00 -99.0 -99.0 -99.0 -99.0 -99.0  -99.  -99.
   15.-99.00 -99.0 -99.0 -99.0 -99.0 -99.0 -99.0 -99.0 -99.0 -99.0-99.00 -99.0 -99.0 -99.0 -99.0 -99.0  -99.  -99.
   30.-99.00 -99.0 -99.0 -99.0 -99.0 -99.0 -99.0 -99.0 -99.0 -99.0-99.00 -99.0 -99.0 -99.0 -99.0 -99.0  -99.  -99.
   45.-99.00 -99.0 -99.0 -99.0 -99.0 -99.0 -99.0 -99.0 -99.0 -99.0-99.00 -99.0 -99.0 -99.0 -99.0 -99.0  -99.  -99.
   60.-99.00 -99.0 -99.0 -99.0 -99.0 -99.0 -99.0 -99.0 -99.0 -99.0-99.00 -99.0 -99.0 -99.0 -99.0 -99.0  -99.  -99.
   90.-99.00 -99.0 -99.0 -99.0 -99.0 -99.0 -99.0 -99.0 -99.0 -99.0-99.00 -99.0 -99.0 -99.0 -99.0 -99.0  -99.  -99.
  120.-99.00 -99.0 -99.0 -99.0 -99.0 -99.0 -99.0 -99.0 -99.0 -99.0-99.00 -99.0 -99.0 -99.0 -99.0 -99.0  -99.  -99.
  150.-99.00 -99.0 -99.0 -99.0 -99.0 -99.0 -99.0 -99.0 -99.0 -99.0-99.00 -99.0 -99.0 -99.0 -99.0 -99.0  -99.  -99.
                    
    5.-99.00-99.00-99.00-99.00
   15.-99.00-99.00-99.00-99.00
   30.-99.00-99.00-99.00-99.00
   45.-99.00-99.00-99.00-99.00
   60.-99.00-99.00-99.00-99.00
   90.-99.00-99.00-99.00-99.00
  120.-99.00-99.00-99.00-99.00
  150.-99.00-99.00-99.00-99.00
*CULTIVAR           
UC0001 ALTONA (00)      SB0001 14.30 0.155 17.00  7.20 13.40 32.50 26.00 1.020 385.0 190.0  1.00 0.190 19.00  2.20 11.50  77.0 0.405 0.205
