*MODEL INPUT FILE            B     1     1    14   999     0
*FILES              
MODEL          CRGRO048
FILEX          UFQU9502.TMX                                                                                 
FILEA          UFQU9502.TMA                                                                                 
FILET          UFQU9502.TMT                                                                                 
SPECIES        TMGRO048.SPE C:\DSSAT48\GENOTYPE\                                                            
ECOTYPE        TMGRO048.ECO C:\DSSAT48\GENOTYPE\                                                            
CULTIVAR       TMGRO048.CUL C:\DSSAT48\GENOTYPE\                                                            
PESTS          TMGRO048.PST C:\DSSAT48\PEST\                                                                
SOILS          SOIL.SOL     C:\DSSAT48\SOIL\                                                                
WEATHERW       UFQU9501.WTH C:\DSSAT48\Weather\                                                             
OUTPUT         OVERVIEW
*SIMULATION CONTROL 
                   1     1     S 1995192  2150 Fert Trial               
                   N     N     N     N     N     N     N     N     M
                   M     M     E     R     S     L     R     1     G     R     2     D     0
                   R     A     R     N     R
                   N     Y     Y     1     Y     Y     Y     Y     N     N     Y     N     N
!AUTOMATIC MANAGEM  
                   -99     -99   40.  100.   30.   45.   40.
                 30.   80.  100. GS000 IR005  10.0 1.000
                200.   50.   25. SI001 SI001
                100.    60   20.
                   283     -99   75.    0.
*EXP.DETAILS        
  1UFQU9502 TM FALL 1995,SOLARSET,N-RATE,DRIP-IRR                          
*TREATMENTS         
 14 1 0 0 95F-180 N AI, N-B "off"  
*CULTIVARS          
   TM TM0002 Solarset 2010 Ca
*FIELDS             
   UFQU0001 UFQU9501   0.0    0. DR000    0. 100.0  0000 SL     180. IBTM910017-99.00 -99.0
    -99.0000000000  -99.0000000000   -99.000               1.0  100.   1.0 -99.0   -99   -99
*INITIAL CONDITIONS 
   99    1995048     1     0  1.00  1.00 -99.0   -99 -9.00 -9.00  -99.  -99.
      5. 0.198   0.0   0.0
     15. 0.198   0.0   0.0
     25. 0.198   0.0   0.0
     34. 0.226   0.0   0.0
     43. 0.226   0.0   0.0
     53. 0.250   0.0   0.0
     64. 0.250   0.0   0.0
     83. 0.281   0.0   0.0
    102. 0.281   0.0   0.0
    123. 0.291   0.0   0.0
    145. 0.291   0.0   0.0
    175. 0.272   0.0   0.0
    203. 0.263   0.0   0.0
*PLANTING DETAILS   
   1995199     -99   1.2   1.2     T     R  183.   90.   1.0    3.   25.  25.0   1.0 -99.0
*IRRIGATION         
   1.000   20.   80.   95. GS000 IR001   0.0
   1995199 IR005   3.8
   1995200 IR005   3.8
   1995201 IR005   3.8
   1995202 IR005   3.8
   1995203 IR005   3.8
   1995204 IR005   3.8
   1995205 IR005   3.8
   1995206 IR005   3.8
   1995207 IR005   3.8
   1995208 IR005   3.8
   1995209 IR005   3.8
   1995210 IR005   3.8
   1995211 IR005   3.8
   1995212 IR005   3.8
   1995213 IR005   1.9
   1995214 IR005   1.9
   1995215 IR005   1.9
   1995216 IR005   1.9
   1995217 IR005   1.9
   1995218 IR005   1.9
   1995219 IR005   1.9
   1995220 IR005   1.9
   1995221 IR005   1.9
   1995222 IR005   1.9
   1995223 IR005   1.9
   1995224 IR005   1.9
   1995225 IR005   1.9
   1995226 IR005   1.9
   1995227 IR005   1.9
   1995228 IR005   1.9
   1995229 IR005   1.9
   1995230 IR005   1.9
   1995231 IR005   1.9
   1995232 IR005   1.9
   1995233 IR005   1.9
   1995234 IR005   3.8
   1995235 IR005   3.8
   1995236 IR005   3.8
   1995237 IR005   3.8
   1995238 IR005   3.8
   1995239 IR005   3.8
   1995240 IR005   3.8
   1995241 IR005   3.8
   1995242 IR005   3.8
   1995243 IR005   3.8
   1995244 IR005   3.8
   1995245 IR005   3.8
   1995246 IR005   3.8
   1995247 IR005   3.8
   1995248 IR005   3.8
   1995249 IR005   3.8
   1995249 IR005   3.8
   1995250 IR005   3.8
   1995251 IR005   3.8
   1995252 IR005   3.8
   1995253 IR005   3.8
   1995254 IR005   3.8
   1995255 IR005   3.8
   1995256 IR005   3.8
   1995257 IR005   3.8
   1995258 IR005   3.8
   1995259 IR005   3.8
   1995260 IR005   3.8
   1995261 IR005   3.8
   1995262 IR005   3.8
   1995263 IR005   3.8
   1995264 IR005   3.8
   1995265 IR005   3.8
   1995266 IR005   3.8
   1995267 IR005   3.8
   1995268 IR005   3.8
   1995269 IR005   3.8
   1995270 IR005   1.9
   1995271 IR005   1.9
   1995272 IR005   1.9
   1995273 IR005   1.9
   1995274 IR005   1.9
   1995275 IR005   1.9
   1995276 IR005   1.9
   1995277 IR005   1.9
   1995278 IR005   1.9
   1995279 IR005   1.9
   1995270 IR005   1.9
   1995271 IR005   1.9
   1995272 IR005   1.9
   1995273 IR005   1.9
   1995274 IR005   1.9
   1995275 IR005   1.9
   1995276 IR005   1.9
   1995277 IR005   1.9
   1995278 IR005   1.9
   1995279 IR005   1.9
   1995280 IR005   1.9
   1995281 IR005   1.9
   1995282 IR005   1.9
   1995283 IR005   1.9
   1995284 IR005   1.9
   1995285 IR005   1.9
   1995286 IR005   1.9
   1995287 IR005   1.9
   1995288 IR005   1.9
   1995289 IR005   1.9
   1995290 IR005   1.9
   1995291 IR005   1.9
   1995292 IR005   1.9
   1995293 IR005   1.9
   1995294 IR005   1.9
   1995295 IR005   1.9
   1995296 IR005   1.9
   1995297 IR005   1.9
   1995298 IR005   1.9
   1995299 IR005   1.9
   1995300 IR005   1.9
   1995301 IR005   1.9
   1995302 IR005   1.9
   1995303 IR005   1.9
   1995304 IR005   1.9
   1995305 IR005   1.9
   1995306 IR005   1.9
   1995307 IR005   1.9
   1995308 IR005   1.9
   1995309 IR005   1.9
   1995310 IR005   1.9
*FERTILIZERS        
   1995192 FE001 AP004    5.  200.    0.    0.    0.    0.     0
*RESIDUES           
*CHEMICALS          
*TILLAGE            
*ENVIRONMENT        
*HARVEST            
   1995283 GS000   -99   -99  100.    0.
*SOIL               
 IBTM910017  SCS         SL     180.   Orangeburg Sandy Loam                           
 Quincy      USA          30.000 -86.400 Loamy,silic,hyperth Gross. Paleud(17)             
 -99    0.13   9.0  0.27   84.  1.00  0.96 IB001 IB001 IB001 -99  
    5.       0.125 0.198 0.294 1.000  -99.  1.49 1.730 -99.0 -99.0 -99.0 -99.0-99.00-99.00-99.00-99.00
   15.       0.125 0.198 0.294 0.874  -99.  1.49 1.730 -99.0 -99.0 -99.0 -99.0-99.00-99.00-99.00-99.00
   25.       0.125 0.198 0.294 0.874  -99.  1.49 1.730 -99.0 -99.0 -99.0 -99.0-99.00-99.00-99.00-99.00
   34.       0.117 0.226 0.323 0.351  -99.  1.41 0.400 -99.0 -99.0 -99.0 -99.0-99.00-99.00-99.00-99.00
   43.       0.117 0.226 0.323 0.351  -99.  1.41 0.400 -99.0 -99.0 -99.0 -99.0-99.00-99.00-99.00-99.00
   53.       0.138 0.250 0.332 0.310  -99.  1.44 0.200 -99.0 -99.0 -99.0 -99.0-99.00-99.00-99.00-99.00
   64.       0.138 0.250 0.332 0.310  -99.  1.44 0.200 -99.0 -99.0 -99.0 -99.0-99.00-99.00-99.00-99.00
   83.       0.167 0.281 0.331 0.302  -99.  1.57 0.140 -99.0 -99.0 -99.0 -99.0-99.00-99.00-99.00-99.00
  102.       0.167 0.281 0.331 0.302  -99.  1.57 0.140 -99.0 -99.0 -99.0 -99.0-99.00-99.00-99.00-99.00
  123.       0.182 0.291 0.334 0.077  -99.  1.59 0.160 -99.0 -99.0 -99.0 -99.0-99.00-99.00-99.00-99.00
  145.       0.182 0.291 0.334 0.077  -99.  1.59 0.160 -99.0 -99.0 -99.0 -99.0-99.00-99.00-99.00-99.00
  175.       0.162 0.272 0.320 0.036  -99.  1.61 0.090 -99.0 -99.0 -99.0 -99.0-99.00-99.00-99.00-99.00
  203.       0.154 0.263 0.319 0.006  -99.  1.58 0.030 -99.0 -99.0 -99.0 -99.0-99.00-99.00-99.00-99.00
                    
    5.-99.00 -99.0 -99.0 -99.0 -99.0 -99.0 -99.0 -99.0 -99.0 -99.0-99.00 -99.0 -99.0 -99.0 -99.0 -99.0  -99.  -99.
   15.-99.00 -99.0 -99.0 -99.0 -99.0 -99.0 -99.0 -99.0 -99.0 -99.0-99.00 -99.0 -99.0 -99.0 -99.0 -99.0  -99.  -99.
   25.-99.00 -99.0 -99.0 -99.0 -99.0 -99.0 -99.0 -99.0 -99.0 -99.0-99.00 -99.0 -99.0 -99.0 -99.0 -99.0  -99.  -99.
   34.-99.00 -99.0 -99.0 -99.0 -99.0 -99.0 -99.0 -99.0 -99.0 -99.0-99.00 -99.0 -99.0 -99.0 -99.0 -99.0  -99.  -99.
   43.-99.00 -99.0 -99.0 -99.0 -99.0 -99.0 -99.0 -99.0 -99.0 -99.0-99.00 -99.0 -99.0 -99.0 -99.0 -99.0  -99.  -99.
   53.-99.00 -99.0 -99.0 -99.0 -99.0 -99.0 -99.0 -99.0 -99.0 -99.0-99.00 -99.0 -99.0 -99.0 -99.0 -99.0  -99.  -99.
   64.-99.00 -99.0 -99.0 -99.0 -99.0 -99.0 -99.0 -99.0 -99.0 -99.0-99.00 -99.0 -99.0 -99.0 -99.0 -99.0  -99.  -99.
   83.-99.00 -99.0 -99.0 -99.0 -99.0 -99.0 -99.0 -99.0 -99.0 -99.0-99.00 -99.0 -99.0 -99.0 -99.0 -99.0  -99.  -99.
  102.-99.00 -99.0 -99.0 -99.0 -99.0 -99.0 -99.0 -99.0 -99.0 -99.0-99.00 -99.0 -99.0 -99.0 -99.0 -99.0  -99.  -99.
  123.-99.00 -99.0 -99.0 -99.0 -99.0 -99.0 -99.0 -99.0 -99.0 -99.0-99.00 -99.0 -99.0 -99.0 -99.0 -99.0  -99.  -99.
  145.-99.00 -99.0 -99.0 -99.0 -99.0 -99.0 -99.0 -99.0 -99.0 -99.0-99.00 -99.0 -99.0 -99.0 -99.0 -99.0  -99.  -99.
  175.-99.00 -99.0 -99.0 -99.0 -99.0 -99.0 -99.0 -99.0 -99.0 -99.0-99.00 -99.0 -99.0 -99.0 -99.0 -99.0  -99.  -99.
  203.-99.00 -99.0 -99.0 -99.0 -99.0 -99.0 -99.0 -99.0 -99.0 -99.0-99.00 -99.0 -99.0 -99.0 -99.0 -99.0  -99.  -99.
                    
    5.-99.00-99.00-99.00-99.00
   15.-99.00-99.00-99.00-99.00
   25.-99.00-99.00-99.00-99.00
   34.-99.00-99.00-99.00-99.00
   43.-99.00-99.00-99.00-99.00
   53.-99.00-99.00-99.00-99.00
   64.-99.00-99.00-99.00-99.00
   83.-99.00-99.00-99.00-99.00
  102.-99.00-99.00-99.00-99.00
  123.-99.00-99.00-99.00-99.00
  145.-99.00-99.00-99.00-99.00
  175.-99.00-99.00-99.00-99.00
  203.-99.00-99.00-99.00-99.00
*CULTIVAR           
TM0002 Solarset 2010 Ca TM0001 12.33 0.000 31.00  4.60 21.00 47.00 47.00 1.360 300.0 300.0  0.78 0.004 27.00300.00 56.00   8.5 0.300 0.050
