*MODEL INPUT FILE            B     1     1     1   999     0
*FILES              
MODEL          CRGRO048
FILEX          LUSK2101.LTX                                                                                 
FILEA          LUSK2101.LTA                                                                                 
FILET          LUSK2101.LTT                                                                                 
SPECIES        LTGRO048.SPE C:\DSSAT48\GENOTYPE\                                                            
ECOTYPE        LTGRO048.ECO C:\DSSAT48\GENOTYPE\                                                            
CULTIVAR       LTGRO048.CUL C:\DSSAT48\GENOTYPE\                                                            
PESTS          LTGRO048.PST C:\DSSAT48\PEST\                                                                
SOILS          CA.SOL       C:\DSSAT48\SOIL\                                                                
WEATHERW       LUSK2101.WTH C:\DSSAT48\Weather\                                                             
OUTPUT         OVERVIEW
*SIMULATION CONTROL 
                   1     1     S 2021110  2150 2021 SIMULATION          
                   Y     Y     Y     N     N     N     N     N     M
                   M     M     E     F     S     L     R     1     P     R     3     D     0
                   R     N     N     N     M
                   N     Y     Y     1     Y     Y     Y     Y     N     N     Y     N     N
!AUTOMATIC MANAGEM  
                   -99     -99   40.  100.   30.   40.   10.
                 30.   50.  100. GS000 IR001  10.0 1.000
                 30.   50.   25. FE001 GS000
                100.     1   20.
                     0     -99  100.    0.
*EXP.DETAILS        
  1LUSK2101 LT RAINFED LENTIL AT LUSKVILLA, QC                             
*TREATMENTS         
  1 0 0 0 Rainfed Maximim 2021     
*CULTIVARS          
   LT CAND04 CDC Maximim     
*FIELDS             
   LUSK0001 LUSK2101   0.0    0.   -99    0. 100.0    0S L      150. CAQC210001-99.00 -99.0
    -75.9199981689   45.4700012207   106.000               1.0  100.   1.0   0.0 FH101   -99
*INITIAL CONDITIONS 
   GB    2006001   600     0  1.00  1.00 -99.0     0  1.00  0.00  100.   15.
     10. 0.200  6.00  11.0
     20. 0.310  8.00  13.0
     30. 0.330  9.00  11.0
     40. 0.340  5.00  4.00
     50. 0.350  3.00  5.00
     60. 0.360  7.00  4.00
     70. 0.380  4.00  5.00
     80. 0.380  4.00  5.00
     90. 0.380  4.00  4.00
    150. 0.380  4.00  4.00
*PLANTING DETAILS   
   2021122     -99 150.0 150.0     S     R   30.    0.   3.0  -99.  -99. -99.0 -99.0   0.0
*IRRIGATION         
   1.000    0.    0.    0. GS000 IR001   0.0
*FERTILIZERS        
*RESIDUES           
*CHEMICALS          
*TILLAGE            
   2021144 TI037   2.0
*ENVIRONMENT        
*HARVEST            
*SOIL               
 CAQC210001  QC LUK  5 A L      150.   LuskVILLE                                       
 QC LUK  5 A Canada       45.460 -75.917 GL  HG   O                                        
 -99    0.09  10.0  0.90   84.  1.00  1.00 IB001 IB001 IB001 -99  
   10.       0.100 0.200 0.500 1.000 0.470  1.51 2.400  15.0  32.0   0.0 0.210  6.40-99.00 19.00-99.00
   20.       0.110 0.320 0.570 1.000  1.32  1.52 2.400  15.0  36.0   0.0 0.230  6.20-99.00 22.00-99.00
   30.       0.110 0.330 0.490 0.607  2.59  1.52 1.900  14.0  33.0   0.0 0.160  6.50-99.00 21.00-99.00
   40.       0.120 0.340 0.510 0.497  1.32  1.48 0.900  15.0  35.0   0.0 0.260  6.50-99.00 19.00-99.00
   50.       0.160 0.350 0.470 0.407  1.32  1.34 0.900  17.0  33.0   0.0 0.410  6.70-99.00 18.00-99.00
   60.       0.160 0.360 0.590 0.333  4.34  1.32 0.800  15.0  29.0   0.0 0.380  6.90-99.00 15.00-99.00
   70.       0.200 0.380 0.490 0.273  2.59  1.30 0.900  20.0  25.0   0.0 0.460  6.60-99.00 21.00-99.00
   80.       0.200 0.380 0.520 0.223 0.430  1.33 0.800  28.0  26.0   0.0 0.810  6.80-99.00 17.00-99.00
   90.       0.200 0.380 0.490 0.183 0.230  1.38 0.800  31.0  29.0   0.0 0.750  6.70-99.00 18.00-99.00
  150.       0.200 0.380 0.490 0.091 0.230  1.38 0.800  31.0  29.0   0.0 0.750  6.70-99.00 18.00-99.00
                    
   10.-99.00 -99.0 -99.0 -99.0 -99.0 -99.0 -99.0 -99.0 -99.0 -99.0-99.00 -99.0 -99.0 -99.0 -99.0 -99.0  -99.  -99.
   20.-99.00 -99.0 -99.0 -99.0 -99.0 -99.0 -99.0 -99.0 -99.0 -99.0-99.00 -99.0 -99.0 -99.0 -99.0 -99.0  -99.  -99.
   30.-99.00 -99.0 -99.0 -99.0 -99.0 -99.0 -99.0 -99.0 -99.0 -99.0-99.00 -99.0 -99.0 -99.0 -99.0 -99.0  -99.  -99.
   40.-99.00 -99.0 -99.0 -99.0 -99.0 -99.0 -99.0 -99.0 -99.0 -99.0-99.00 -99.0 -99.0 -99.0 -99.0 -99.0  -99.  -99.
   50.-99.00 -99.0 -99.0 -99.0 -99.0 -99.0 -99.0 -99.0 -99.0 -99.0-99.00 -99.0 -99.0 -99.0 -99.0 -99.0  -99.  -99.
   60.-99.00 -99.0 -99.0 -99.0 -99.0 -99.0 -99.0 -99.0 -99.0 -99.0-99.00 -99.0 -99.0 -99.0 -99.0 -99.0  -99.  -99.
   70.-99.00 -99.0 -99.0 -99.0 -99.0 -99.0 -99.0 -99.0 -99.0 -99.0-99.00 -99.0 -99.0 -99.0 -99.0 -99.0  -99.  -99.
   80.-99.00 -99.0 -99.0 -99.0 -99.0 -99.0 -99.0 -99.0 -99.0 -99.0-99.00 -99.0 -99.0 -99.0 -99.0 -99.0  -99.  -99.
   90.-99.00 -99.0 -99.0 -99.0 -99.0 -99.0 -99.0 -99.0 -99.0 -99.0-99.00 -99.0 -99.0 -99.0 -99.0 -99.0  -99.  -99.
  150.-99.00 -99.0 -99.0 -99.0 -99.0 -99.0 -99.0 -99.0 -99.0 -99.0-99.00 -99.0 -99.0 -99.0 -99.0 -99.0  -99.  -99.
                    
   10.-99.00-99.00-99.00-99.00
   20.-99.00-99.00-99.00-99.00
   30.-99.00-99.00-99.00-99.00
   40.-99.00-99.00-99.00-99.00
   50.-99.00-99.00-99.00-99.00
   60.-99.00-99.00-99.00-99.00
   70.-99.00-99.00-99.00-99.00
   80.-99.00-99.00-99.00-99.00
   90.-99.00-99.00-99.00-99.00
  150.-99.00-99.00-99.00-99.00
*CULTIVAR           
CAND04 CDC Maximim      LAT001 15.80-0.110 26.50  7.50 10.00 21.00 20.00 1.000 220.0  70.0  1.00 0.044 20.00  1.30 14.00  69.0 0.286 0.020
