*MODEL INPUT FILE            B     1     1     1   999     0
*FILES              
MODEL          CRGRO048
FILEX          GLOB1632.LTX                                                                                 
FILEA          GLOB1632.LTA                                                                                 
FILET          GLOB1632.LTT                                                                                 
SPECIES        LTGRO048.SPE C:\DSSAT48\GENOTYPE\                                                            
ECOTYPE        LTGRO048.ECO C:\DSSAT48\GENOTYPE\                                                            
CULTIVAR       LTGRO048.CUL C:\DSSAT48\GENOTYPE\                                                            
PESTS          LTGRO048.PST C:\DSSAT48\PEST\                                                                
SOILS          CA.SOL       C:\DSSAT48\SOIL\                                                                
WEATHERW       SKSL1602.WTH C:\DSSAT48\Weather\                                                             
OUTPUT         OVERVIEW
*SIMULATION CONTROL 
                   1     1     S 2016001  2150 2006 SIMULATION          
                   Y     Y     Y     N     N     N     N     N     M
                   M     M     E     R     S     L     R     1     P     R     1     D     0
                   R     R     R     N     M
                   N     Y     Y     1     Y     Y     Y     Y     N     N     Y     N     N
!AUTOMATIC MANAGEM  
                   -99     -99   40.  100.   30.   40.   10.
                 30.   50.  100. GS000 IR001  10.0 1.000
                 30.   50.   25. FE001 GS000
                100.     1   20.
                     0     -99  100.    0.
*EXP.DETAILS        
  1GLOB1632 LT GLOBAL LENTIL EXPERIMENT 9 LOCATIONS 2016-2018              
*TREATMENTS         
  1 0 0 0 CA-Suther 2016           
*CULTIVARS          
   LT CAND04 CDC Maximim     
*FIELDS             
   SKSL0001 SKSL1602   0.0    0.   -99    0. 100.0    0S SIL    150. CAOT900010-99.00 -99.0
   -107.3000030518   50.2799987793    90.000               1.0  100.   1.0   0.0 FH101   -99
*INITIAL CONDITIONS 
   WH    2016001     0     0  1.00  1.00 -99.0     0  0.00  0.00  100.   15.
      5. 0.260  1.00  10.6
     15. 0.260  1.00  9.00
     30. 0.287 0.467  3.33
     45. 0.297 0.200  1.10
     60. 0.290 0.200  1.10
     90. 0.313 0.200  1.10
    120. 0.320 0.200  1.10
    150. 0.320 0.200  1.10
*PLANTING DETAILS   
   2016118     -99 150.0 150.0     S     R   25.  -99.   6.0  -99.  -99. -99.0 -99.0   0.0
*IRRIGATION         
   1.000    0.    0.    0. GS000 IR001   0.0
*FERTILIZERS        
*RESIDUES           
*CHEMICALS          
*TILLAGE            
*ENVIRONMENT        
*HARVEST            
*SOIL               
 CAOT900010  OT OTH    A SIL    150.   OTH  O.DBC                                      
 OT OTH    A Canada       -0.009  -0.099 CH  OTH  O                                        
 -99    0.12   8.0  0.60   61.  1.00  1.00 IB001 IB001 IB001 -99  
    5.       0.136 0.284 0.497 1.000  2.53  1.33 2.270  18.0  40.0 -99.0  -9.0  7.00-99.00-99.00-99.00
   15.       0.136 0.284 0.497 1.000  2.53  1.33 2.270  18.0  40.0 -99.0  -9.0  7.00-99.00-99.00-99.00
   30.       0.133 0.279 0.486 1.000  2.33  1.36 1.470  18.0  40.0 -99.0  -9.0  7.00-99.00-99.00-99.00
   45.       0.127 0.269 0.461 0.824  1.95  1.43 0.807  18.0  40.0 -99.0  -9.0  7.00-99.00-99.00-99.00
   60.       0.118 0.253 0.424 0.472  1.39  1.53 0.280  18.0  40.0 -99.0  -9.0  7.00-99.00-99.00-99.00
   90.       0.113 0.243 0.403 0.297  1.13  1.58 0.057  18.0  40.0 -99.0  -9.0  7.00-99.00-99.00-99.00
  120.       0.187 0.316 0.377 0.119 0.513  1.61 0.223  31.4  35.3 -99.0  -9.0  7.00-99.00-99.00-99.00
  150.       0.225 0.353 0.366 0.082 0.230  1.62 0.320  38.1  32.9 -99.0  -9.0  7.00-99.00-99.00-99.00
                    
    5.-99.00 -99.0 -99.0 -99.0 -99.0 -99.0 -99.0 -99.0 -99.0 -99.0-99.00 -99.0 -99.0 -99.0 -99.0 -99.0  -99.  -99.
   15.-99.00 -99.0 -99.0 -99.0 -99.0 -99.0 -99.0 -99.0 -99.0 -99.0-99.00 -99.0 -99.0 -99.0 -99.0 -99.0  -99.  -99.
   30.-99.00 -99.0 -99.0 -99.0 -99.0 -99.0 -99.0 -99.0 -99.0 -99.0-99.00 -99.0 -99.0 -99.0 -99.0 -99.0  -99.  -99.
   45.-99.00 -99.0 -99.0 -99.0 -99.0 -99.0 -99.0 -99.0 -99.0 -99.0-99.00 -99.0 -99.0 -99.0 -99.0 -99.0  -99.  -99.
   60.-99.00 -99.0 -99.0 -99.0 -99.0 -99.0 -99.0 -99.0 -99.0 -99.0-99.00 -99.0 -99.0 -99.0 -99.0 -99.0  -99.  -99.
   90.-99.00 -99.0 -99.0 -99.0 -99.0 -99.0 -99.0 -99.0 -99.0 -99.0-99.00 -99.0 -99.0 -99.0 -99.0 -99.0  -99.  -99.
  120.-99.00 -99.0 -99.0 -99.0 -99.0 -99.0 -99.0 -99.0 -99.0 -99.0-99.00 -99.0 -99.0 -99.0 -99.0 -99.0  -99.  -99.
  150.-99.00 -99.0 -99.0 -99.0 -99.0 -99.0 -99.0 -99.0 -99.0 -99.0-99.00 -99.0 -99.0 -99.0 -99.0 -99.0  -99.  -99.
                    
    5.-99.00-99.00-99.00-99.00
   15.-99.00-99.00-99.00-99.00
   30.-99.00-99.00-99.00-99.00
   45.-99.00-99.00-99.00-99.00
   60.-99.00-99.00-99.00-99.00
   90.-99.00-99.00-99.00-99.00
  120.-99.00-99.00-99.00-99.00
  150.-99.00-99.00-99.00-99.00
*CULTIVAR           
CAND04 CDC Maximim      LAT001 15.80-0.110 26.50  7.50 10.00 21.00 20.00 1.000 220.0  70.0  1.00 0.044 20.00  1.30 14.00  69.0 0.286 0.020
