*MODEL INPUT FILE            B     1     1     1   999     0
*FILES              
MODEL          CRGRO048
FILEX          CCPA8629.BNX                                                                                 
FILEA          CCPA8629.BNA                                                                                 
FILET          CCPA8629.BNT                                                                                 
SPECIES        BNGRO048.SPE C:\DSSAT48\GENOTYPE\                                                            
ECOTYPE        BNGRO048.ECO C:\DSSAT48\GENOTYPE\                                                            
CULTIVAR       BNGRO048.CUL C:\DSSAT48\GENOTYPE\                                                            
PESTS          BNGRO048.PST C:\DSSAT48\PEST\                                                                
SOILS          SOIL.SOL     C:\DSSAT48\SOIL\                                                                
WEATHERW       CCPA8601.WTH C:\DSSAT48\Weather\                                                             
OUTPUT         OVERVIEW
*SIMULATION CONTROL 
                   1     1     S 1986239  2150 3 CULTIVARS, 2 ROW WIDTH 
                   Y     Y     Y     N     N     N     N     Y     M
                   M     M     E     R     S     L     R     1     G     R     2     D     0
                   R     R     R     R     M
                   N     Y     Y     1     Y     Y     Y     Y     N     N     Y     N     N
!AUTOMATIC MANAGEM  
                   -99     -99   40.  100.   30.   40.   10.
                 30.   50.  100. GS000 IR001  10.0 1.000
                 30.   50.   25. FE001 GS000
                100.     1   20.
                     0     -99  100.    0.
*EXP.DETAILS        
  1CCPA8629 BN 3 CULTIVARS, 2 ROW WIDTHS, 2 DENSITIES                      
*TREATMENTS         
  1 1 0 0 Porrillo Sin.  0.3 m row 
*CULTIVARS          
   BN IB0001 Porrillo Sinteti
*FIELDS             
   CCPA0001 CCPA8601   0.0    0. DR000    0. 100.0 00000 -99    209. IBBN910030-99.00 -99.0
      0.0000000000    0.0000000000     0.000               1.0  100.   1.0   0.0   -99   -99
*INITIAL CONDITIONS 
   BN    1986239     1     0  1.00  1.00 -99.0     0  0.00  0.00  100.   15.
      5. 0.340  2.00  15.0
     15. 0.340  2.00  15.0
     25. 0.345  2.00  15.0
     35. 0.345  2.00  15.0
     50. 0.335  2.00  15.0
     65. 0.323  1.00  4.00
     80. 0.323  1.00  4.00
     99. 0.328  7.00  4.00
    122. 0.325  7.00  4.00
    137. 0.288  7.00  4.00
    159. 0.242  7.00  4.00
    184. 0.177  7.00  4.00
    209. 0.193  7.00  4.00
*PLANTING DETAILS   
   1986269     -99  15.0  15.0     S     R   30.    0.   2.0  -99.  -99. -99.0 -99.0   0.0
*IRRIGATION         
   1.000   30.   75.  -99. GS000 IR001   0.0
   1986269 IR001  30.0
   1986324 IR001  25.0
*FERTILIZERS        
   1986269 FE009   001    4.   15.  -99.  -99.  -99.  -99.   -99
*RESIDUES           
*CHEMICALS          
*TILLAGE            
*ENVIRONMENT        
*HARVEST            
*SOIL               
 IBBN910030  CIAT        -99    209.   CIAT-Plot M3                                    
 Palmira(M3) Colombia      3.400  73.370 Fine-silty,mixed,isohyperth.Aquic Hapludoll       
 -99    0.09  11.0  0.40   84.  1.00  1.00 IB001 IB001 IB001 -99  
    5.       0.204 0.340 0.392 1.000  -99.  1.45 2.190 -99.0 -99.0 -99.0  -9.0  6.90-99.00-99.00-99.00
   15.       0.204 0.340 0.392 1.000  -99.  1.45 2.190 -99.0 -99.0 -99.0  -9.0  6.90-99.00-99.00-99.00
   25.       0.209 0.345 0.390 0.750  -99.  1.45 1.210 -99.0 -99.0 -99.0  -9.0  7.20-99.00-99.00-99.00
   35.       0.209 0.345 0.390 0.500  -99.  1.45 1.210 -99.0 -99.0 -99.0  -9.0  7.20-99.00-99.00-99.00
   50.       0.198 0.335 0.390 0.350  -99.  1.49 0.530 -99.0 -99.0 -99.0  -9.0  8.00-99.00-99.00-99.00
   65.       0.185 0.323 0.395 0.200  -99.  1.58 0.200 -99.0 -99.0 -99.0  -9.0  8.20-99.00-99.00-99.00
   80.       0.185 0.323 0.395 0.150  -99.  1.58 0.200 -99.0 -99.0 -99.0  -9.0  8.20-99.00-99.00-99.00
   99.       0.201 0.328 0.408 0.100  -99.  1.54 0.100 -99.0 -99.0 -99.0  -9.0  8.10-99.00-99.00-99.00
  122.       0.198 0.325 0.410 0.050  -99.  1.58 0.090 -99.0 -99.0 -99.0  -9.0  8.20-99.00-99.00-99.00
  137.       0.159 0.288 0.399 0.000  -99.  1.50 0.090 -99.0 -99.0 -99.0  -9.0  8.30-99.00-99.00-99.00
  159.       0.110 0.242 0.402 0.000  -99.  1.69 0.100 -99.0 -99.0 -99.0  -9.0  8.30-99.00-99.00-99.00
  184.       0.047 0.177 0.351 0.000  -99.  1.59 0.080 -99.0 -99.0 -99.0  -9.0  8.00-99.00-99.00-99.00
  209.       0.050 0.193 0.410 0.000  -99.  1.45 0.120 -99.0 -99.0 -99.0  -9.0  8.50-99.00-99.00-99.00
                    
    5.-99.00 -99.0 -99.0 -99.0 -99.0 -99.0 -99.0 -99.0 -99.0 -99.0-99.00 -99.0 -99.0 -99.0 -99.0 -99.0  -99.  -99.
   15.-99.00 -99.0 -99.0 -99.0 -99.0 -99.0 -99.0 -99.0 -99.0 -99.0-99.00 -99.0 -99.0 -99.0 -99.0 -99.0  -99.  -99.
   25.-99.00 -99.0 -99.0 -99.0 -99.0 -99.0 -99.0 -99.0 -99.0 -99.0-99.00 -99.0 -99.0 -99.0 -99.0 -99.0  -99.  -99.
   35.-99.00 -99.0 -99.0 -99.0 -99.0 -99.0 -99.0 -99.0 -99.0 -99.0-99.00 -99.0 -99.0 -99.0 -99.0 -99.0  -99.  -99.
   50.-99.00 -99.0 -99.0 -99.0 -99.0 -99.0 -99.0 -99.0 -99.0 -99.0-99.00 -99.0 -99.0 -99.0 -99.0 -99.0  -99.  -99.
   65.-99.00 -99.0 -99.0 -99.0 -99.0 -99.0 -99.0 -99.0 -99.0 -99.0-99.00 -99.0 -99.0 -99.0 -99.0 -99.0  -99.  -99.
   80.-99.00 -99.0 -99.0 -99.0 -99.0 -99.0 -99.0 -99.0 -99.0 -99.0-99.00 -99.0 -99.0 -99.0 -99.0 -99.0  -99.  -99.
   99.-99.00 -99.0 -99.0 -99.0 -99.0 -99.0 -99.0 -99.0 -99.0 -99.0-99.00 -99.0 -99.0 -99.0 -99.0 -99.0  -99.  -99.
  122.-99.00 -99.0 -99.0 -99.0 -99.0 -99.0 -99.0 -99.0 -99.0 -99.0-99.00 -99.0 -99.0 -99.0 -99.0 -99.0  -99.  -99.
  137.-99.00 -99.0 -99.0 -99.0 -99.0 -99.0 -99.0 -99.0 -99.0 -99.0-99.00 -99.0 -99.0 -99.0 -99.0 -99.0  -99.  -99.
  159.-99.00 -99.0 -99.0 -99.0 -99.0 -99.0 -99.0 -99.0 -99.0 -99.0-99.00 -99.0 -99.0 -99.0 -99.0 -99.0  -99.  -99.
  184.-99.00 -99.0 -99.0 -99.0 -99.0 -99.0 -99.0 -99.0 -99.0 -99.0-99.00 -99.0 -99.0 -99.0 -99.0 -99.0  -99.  -99.
  209.-99.00 -99.0 -99.0 -99.0 -99.0 -99.0 -99.0 -99.0 -99.0 -99.0-99.00 -99.0 -99.0 -99.0 -99.0 -99.0  -99.  -99.
                    
    5.-99.00-99.00-99.00-99.00
   15.-99.00-99.00-99.00-99.00
   25.-99.00-99.00-99.00-99.00
   35.-99.00-99.00-99.00-99.00
   50.-99.00-99.00-99.00-99.00
   65.-99.00-99.00-99.00-99.00
   80.-99.00-99.00-99.00-99.00
   99.-99.00-99.00-99.00-99.00
  122.-99.00-99.00-99.00-99.00
  137.-99.00-99.00-99.00-99.00
  159.-99.00-99.00-99.00-99.00
  184.-99.00-99.00-99.00-99.00
  209.-99.00-99.00-99.00-99.00
*CULTIVAR           
IB0001 Porrillo Sinteti MESIND 13.50 0.017 31.20  3.00  8.00 20.50 21.00 1.000 300.0 150.0  1.00 0.240 21.00  5.20 11.50  78.0 0.235 0.030
