*MODEL INPUT FILE            B     1     1     1   999     0
*FILES              
MODEL          CRGRO048
FILEX          UCCO9101.SUX                                                                                 
FILEA          UCCO9101.SUA                                                                                 
FILET          UCCO9101.SUT                                                                                 
SPECIES        SUGRO048.SPE C:\DSSAT48\GENOTYPE\                                                            
ECOTYPE        SUGRO048.ECO C:\DSSAT48\GENOTYPE\                                                            
CULTIVAR       SUGRO048.CUL C:\DSSAT48\GENOTYPE\                                                            
PESTS          SUGRO048.PST C:\DSSAT48\PEST\                                                                
SOILS          CO.SOL       C:\DSSAT48\SOIL\                                                                
WEATHERW       UCCO9101.WTH C:\DSSAT48\Weather\                                                             
OUTPUT         OVERVIEW
*SIMULATION CONTROL 
                   1     1     S 1991032  2150 CORDOBA PP91. VILLALOBOS 
                   Y     Y     N     N     N     N     N     Y     M
                   M     M     E     R     S     L     R     1     G     R     2     D     0
                   R     R     R     N     M
                   N     Y     Y     1     Y     N     Y     Y     N     N     Y     N     N
!AUTOMATIC MANAGEM  
                   -99     -99   40.  100.   30.   40.   10.
                 30.   50.  100. GS000 IR001  10.0 1.000
                 30.   50.   25. FE001 GS000
                100.     1   20.
                     0     -99  100.    0.
*EXP.DETAILS        
  1UCCO9101 SU CORDOBA PP91. VILLALOBOS ET AL.                             
*TREATMENTS         
  1 1 0 0 PP91 SW-101  0.5         
*CULTIVARS          
   SU IB0014 SW-101          
*FIELDS             
   UCCO0001 UCCO9101   0.0    0. DR000    0. 100.0 00000 -99    300. COSU910045-99.00 -99.0
      0.0000000000    0.0000000000     0.000               1.0  100.   1.0   0.0   -99   -99
*INITIAL CONDITIONS 
   SU    1991032   500     0  1.00  1.00 -99.0  1000  0.53  0.00  100.   30.
      5. 0.200  3.60  5.60
     15. 0.200  3.60  5.60
     30. 0.200  3.60  5.60
     45. 0.223  2.20  3.20
     60. 0.223  2.20  3.20
     90. 0.230  2.50  2.40
    120. 0.230  2.50  2.50
    150. 0.210  2.50  2.70
    180. 0.210  2.50  2.50
    210. 0.220  2.50  2.30
    240. 0.225  2.50  1.90
    270. 0.215  2.50  1.90
    300. 0.210  2.50  1.60
*PLANTING DETAILS   
   1991045     -99   0.5   0.5     S     R   70.    0.   4.0  -99.  -99. -99.0 -99.0   0.0
*IRRIGATION         
   1.000   30.   75.  -99. GS000 IR001  10.0
   1991110 IR001  50.0
   1991124 IR001  50.0
   1991131 IR001  60.0
   1991138 IR001  60.0
   1991145 IR001  60.0
   1991152 IR001  60.0
   1991159 IR001  60.0
   1991166 IR001  60.0
   1991173 IR001  60.0
*FERTILIZERS        
   1991042 FE005 AP001   10.  170.    0.    0.    0.    0.   -99
   1991134 FE005 AP001   10.  145.    0.    0.    0.    0.   -99
*RESIDUES           
*CHEMICALS          
*TILLAGE            
*ENVIRONMENT        
*HARVEST            
*SOIL               
 COSU910045              -99    300. Granja Sandy Loam                                 
 Cordoba     Spain        -0.099  -0.099 Granja sandy loam. Cordoba, Spain                 
 -99    0.18   6.0  0.50   77.  1.00  1.00 SA001 SA001 SA001 -99  
    5.       0.080 0.240 0.340 1.000  -99.  1.60 -99.0 -99.0 -99.0 -99.0  -9.0  7.00-99.00-99.00-99.00
   15.       0.080 0.240 0.340 1.000  -99.  1.60 -99.0 -99.0 -99.0 -99.0  -9.0  7.00-99.00-99.00-99.00
   30.       0.080 0.240 0.340 1.000  -99.  1.60 -99.0 -99.0 -99.0 -99.0  -9.0  7.00-99.00-99.00-99.00
   45.       0.080 0.240 0.360 0.411  -99.  1.60 -99.0 -99.0 -99.0 -99.0  -9.0  7.00-99.00-99.00-99.00
   60.       0.080 0.240 0.360 0.411  -99.  1.60 -99.0 -99.0 -99.0 -99.0  -9.0  7.00-99.00-99.00-99.00
   90.       0.080 0.240 0.380 0.223  -99.  1.60 -99.0 -99.0 -99.0 -99.0  -9.0  7.00-99.00-99.00-99.00
  120.       0.080 0.240 0.370 0.100  -99.  1.60 -99.0 -99.0 -99.0 -99.0  -9.0  7.00-99.00-99.00-99.00
  150.       0.080 0.240 0.380 0.100  -99.  1.60 -99.0 -99.0 -99.0 -99.0  -9.0  7.00-99.00-99.00-99.00
  180.       0.080 0.240 0.350 0.100  -99.  1.60 -99.0 -99.0 -99.0 -99.0  -9.0  7.00-99.00-99.00-99.00
  210.       0.080 0.240 0.360 0.100  -99.  1.60 -99.0 -99.0 -99.0 -99.0  -9.0  7.00-99.00-99.00-99.00
  240.       0.080 0.240 0.350 0.010  -99.  1.60 -99.0 -99.0 -99.0 -99.0  -9.0  7.00-99.00-99.00-99.00
  270.       0.080 0.240 0.340 0.001  -99.  1.60 -99.0 -99.0 -99.0 -99.0  -9.0  7.00-99.00-99.00-99.00
  300.       0.080 0.240 0.340 0.001  -99.  1.60 -99.0 -99.0 -99.0 -99.0  -9.0  7.00-99.00-99.00-99.00
                    
    5.-99.00 -99.0 -99.0 -99.0 -99.0 -99.0 -99.0 -99.0 -99.0 -99.0-99.00 -99.0 -99.0 -99.0 -99.0 -99.0  -99.  -99.
   15.-99.00 -99.0 -99.0 -99.0 -99.0 -99.0 -99.0 -99.0 -99.0 -99.0-99.00 -99.0 -99.0 -99.0 -99.0 -99.0  -99.  -99.
   30.-99.00 -99.0 -99.0 -99.0 -99.0 -99.0 -99.0 -99.0 -99.0 -99.0-99.00 -99.0 -99.0 -99.0 -99.0 -99.0  -99.  -99.
   45.-99.00 -99.0 -99.0 -99.0 -99.0 -99.0 -99.0 -99.0 -99.0 -99.0-99.00 -99.0 -99.0 -99.0 -99.0 -99.0  -99.  -99.
   60.-99.00 -99.0 -99.0 -99.0 -99.0 -99.0 -99.0 -99.0 -99.0 -99.0-99.00 -99.0 -99.0 -99.0 -99.0 -99.0  -99.  -99.
   90.-99.00 -99.0 -99.0 -99.0 -99.0 -99.0 -99.0 -99.0 -99.0 -99.0-99.00 -99.0 -99.0 -99.0 -99.0 -99.0  -99.  -99.
  120.-99.00 -99.0 -99.0 -99.0 -99.0 -99.0 -99.0 -99.0 -99.0 -99.0-99.00 -99.0 -99.0 -99.0 -99.0 -99.0  -99.  -99.
  150.-99.00 -99.0 -99.0 -99.0 -99.0 -99.0 -99.0 -99.0 -99.0 -99.0-99.00 -99.0 -99.0 -99.0 -99.0 -99.0  -99.  -99.
  180.-99.00 -99.0 -99.0 -99.0 -99.0 -99.0 -99.0 -99.0 -99.0 -99.0-99.00 -99.0 -99.0 -99.0 -99.0 -99.0  -99.  -99.
  210.-99.00 -99.0 -99.0 -99.0 -99.0 -99.0 -99.0 -99.0 -99.0 -99.0-99.00 -99.0 -99.0 -99.0 -99.0 -99.0  -99.  -99.
  240.-99.00 -99.0 -99.0 -99.0 -99.0 -99.0 -99.0 -99.0 -99.0 -99.0-99.00 -99.0 -99.0 -99.0 -99.0 -99.0  -99.  -99.
  270.-99.00 -99.0 -99.0 -99.0 -99.0 -99.0 -99.0 -99.0 -99.0 -99.0-99.00 -99.0 -99.0 -99.0 -99.0 -99.0  -99.  -99.
  300.-99.00 -99.0 -99.0 -99.0 -99.0 -99.0 -99.0 -99.0 -99.0 -99.0-99.00 -99.0 -99.0 -99.0 -99.0 -99.0  -99.  -99.
                    
    5.-99.00-99.00-99.00-99.00
   15.-99.00-99.00-99.00-99.00
   30.-99.00-99.00-99.00-99.00
   45.-99.00-99.00-99.00-99.00
   60.-99.00-99.00-99.00-99.00
   90.-99.00-99.00-99.00-99.00
  120.-99.00-99.00-99.00-99.00
  150.-99.00-99.00-99.00-99.00
  180.-99.00-99.00-99.00-99.00
  210.-99.00-99.00-99.00-99.00
  240.-99.00-99.00-99.00-99.00
  270.-99.00-99.00-99.00-99.00
  300.-99.00-99.00-99.00-99.00
*CULTIVAR           
IB0014 SW-101           SU0702 15.00-0.086 17.60  5.50 10.20 26.00 14.00 1.700 250.0 200.0  0.72 0.090 24.00  2.00  4.50  68.0 0.140 0.430
