*MODEL INPUT FILE            B     1     1     1   999     0
*FILES              
MODEL          CRGRO048
FILEX          CCCA8091.BRX                                                                                 
FILEA          CCCA8091.BRA                                                                                 
FILET          CCCA8091.BRT                                                                                 
SPECIES        BRGRO048.SPE C:\DSSAT48\GENOTYPE\                                                            
ECOTYPE        BRGRO048.ECO C:\DSSAT48\GENOTYPE\                                                            
CULTIVAR       BRGRO048.CUL C:\DSSAT48\GENOTYPE\                                                            
PESTS          BRGRO048.PST C:\DSSAT48\PEST\                                                                
SOILS          SOIL.SOL     C:\DSSAT48\SOIL\                                                                
WEATHERW       CCCA8001.WTH C:\DSSAT48\Weather\                                                             
OUTPUT         OVERVIEW
*SIMULATION CONTROL 
                   1     1     S 1980120  2150 BRACH : C4GRASS 3 YR     
                   Y     Y     N     N     N     Y     N     N     M
                   M     M     E     R     S     C     R     1     P     R     2     D     0
                   R     R     R     N     R
                   N     Y     Y     1     Y     Y     Y     Y     N     Y     Y     N     N
!AUTOMATIC MANAGEM  
                   -99     -99   40.  100.   30.   40.   10.
                 30.   50.  100. GS000 IR001  10.0 0.000
                 30.   50.   25. FE001 GS000
                100.     1   20.
                     0     -99  100.    0.
*EXP.DETAILS        
  1CCCA8091 BR BRACHIARIA ON CARIMAGUA                                     
*TREATMENTS         
  1 0 0 0 80 Treatment 1           
*CULTIVARS          
   BR CC0004 Brachiaria 4    
*FIELDS             
   CCCA0001 CCCA8001   0.0    0. DR000    0. 100.0     0 CL     120. CCCA800001-99.00 -99.0
      0.0000000000    0.0000000000   200.000               1.0  100.   1.0   0.0 FH102    20
*INITIAL CONDITIONS 
   SB    1980120     0     0  1.00  1.00 -99.0     0  0.00  0.00  100.   15.
      5. 0.350 0.500  6.10
     15. 0.350 0.500  5.50
     20. 0.350 0.500  5.00
     25. 0.360 0.500  4.60
     30. 0.360 0.500  4.20
     35. 0.360 0.500  3.80
     40. 0.360 0.500  3.40
     55. 0.360 0.500  1.90
     70. 0.360 0.500  1.90
     95. 0.360 0.500  1.50
    120. 0.360 0.500  1.50
*PLANTING DETAILS   
   1980128 1980136 100.0 100.0     S     R   10.    0.   1.0    3.  -99. -99.0 -99.0   0.0
*IRRIGATION         
   1.000    0.    0.    0. GS000 IR001   0.0
*FERTILIZERS        
   1980128 FE005 AP002    0.   50.    0.    0.    0.    0.   -99
   1980189 FE005 AP002    0.   50.    0.    0.    0.    0.   -99
*RESIDUES           
*CHEMICALS          
*TILLAGE            
*ENVIRONMENT        
*HARVEST            
   1982128 GS000     C   -99  100.    0.
*SOIL               
 CCCA800001  CL       CL CL     120.   ULTISOL CARIMAGUA-CIAT                          
 CARIMAGUA   COLOMBIA      4.600  71.310 CLAY                                              
 -99    0.13  11.5  0.65   75.  1.00  1.00 -99   -99   -99   -99  
    5.       0.190 0.350 0.430 0.950  -99.  1.30 1.600  12.0  50.0 -99.0 0.160  4.10-99.00  5.60-99.00
   15.       0.240 0.400 0.430 0.820  -99.  1.42 1.380  12.0  50.0 -99.0 0.160  4.10-99.00  5.60-99.00
   20.       0.240 0.400 0.430 0.700  -99.  1.43 1.180  12.0  50.0 -99.0 0.160  4.10-99.00  5.60-99.00
   25.       0.240 0.400 0.430 0.630  -99.  1.43 1.060  12.0  48.0 -99.0 0.130  4.00-99.00  3.40-99.00
   30.       0.240 0.390 0.430 0.580  -99.  1.45 0.980  12.0  48.0 -99.0 0.130  4.00-99.00  3.40-99.00
   35.       0.240 0.390 0.430 0.520  -99.  1.46 0.880  12.0  48.0 -99.0 0.130  4.00-99.00  3.40-99.00
   40.       0.240 0.390 0.430 0.470  -99.  1.46 0.800  12.0  48.0 -99.0 0.130  4.00-99.00  3.40-99.00
   55.       0.230 0.390 0.430 0.330  -99.  1.48 0.560  12.0  48.0 -99.0 0.700  4.00-99.00  3.40-99.00
   70.       0.230 0.390 0.430 0.330  -99.  1.48 0.560  12.0  48.0 -99.0 0.700  4.00-99.00  3.40-99.00
   95.       0.230 0.390 0.430 0.150  -99.  1.50 0.250  12.0  48.0 -99.0 0.500  4.00-99.00  3.40-99.00
  120.       0.230 0.390 0.430 0.150  -99.  1.50 0.250  12.0  48.0 -99.0 0.500  4.00-99.00  3.40-99.00
                    
    5.-99.00 -99.0 -99.0 -99.0 -99.0 -99.0 -99.0 -99.0 -99.0 -99.0-99.00 -99.0 -99.0 -99.0 -99.0 -99.0  -99.  -99.
   15.-99.00 -99.0 -99.0 -99.0 -99.0 -99.0 -99.0 -99.0 -99.0 -99.0-99.00 -99.0 -99.0 -99.0 -99.0 -99.0  -99.  -99.
   20.-99.00 -99.0 -99.0 -99.0 -99.0 -99.0 -99.0 -99.0 -99.0 -99.0-99.00 -99.0 -99.0 -99.0 -99.0 -99.0  -99.  -99.
   25.-99.00 -99.0 -99.0 -99.0 -99.0 -99.0 -99.0 -99.0 -99.0 -99.0-99.00 -99.0 -99.0 -99.0 -99.0 -99.0  -99.  -99.
   30.-99.00 -99.0 -99.0 -99.0 -99.0 -99.0 -99.0 -99.0 -99.0 -99.0-99.00 -99.0 -99.0 -99.0 -99.0 -99.0  -99.  -99.
   35.-99.00 -99.0 -99.0 -99.0 -99.0 -99.0 -99.0 -99.0 -99.0 -99.0-99.00 -99.0 -99.0 -99.0 -99.0 -99.0  -99.  -99.
   40.-99.00 -99.0 -99.0 -99.0 -99.0 -99.0 -99.0 -99.0 -99.0 -99.0-99.00 -99.0 -99.0 -99.0 -99.0 -99.0  -99.  -99.
   55.-99.00 -99.0 -99.0 -99.0 -99.0 -99.0 -99.0 -99.0 -99.0 -99.0-99.00 -99.0 -99.0 -99.0 -99.0 -99.0  -99.  -99.
   70.-99.00 -99.0 -99.0 -99.0 -99.0 -99.0 -99.0 -99.0 -99.0 -99.0-99.00 -99.0 -99.0 -99.0 -99.0 -99.0  -99.  -99.
   95.-99.00 -99.0 -99.0 -99.0 -99.0 -99.0 -99.0 -99.0 -99.0 -99.0-99.00 -99.0 -99.0 -99.0 -99.0 -99.0  -99.  -99.
  120.-99.00 -99.0 -99.0 -99.0 -99.0 -99.0 -99.0 -99.0 -99.0 -99.0-99.00 -99.0 -99.0 -99.0 -99.0 -99.0  -99.  -99.
                    
    5.-99.00-99.00-99.00-99.00
   15.-99.00-99.00-99.00-99.00
   20.-99.00-99.00-99.00-99.00
   25.-99.00-99.00-99.00-99.00
   30.-99.00-99.00-99.00-99.00
   35.-99.00-99.00-99.00-99.00
   40.-99.00-99.00-99.00-99.00
   55.-99.00-99.00-99.00-99.00
   70.-99.00-99.00-99.00-99.00
   95.-99.00-99.00-99.00-99.00
  120.-99.00-99.00-99.00-99.00
*CULTIVAR           
CC0004 Brachiaria 4     BR0001 12.00 0.200 99.00 10.00 18.00 33.00 25.00 2.200 225.0   2.0  0.01 0.002 18.00  2.05 20.00  78.0 0.398 0.500
