*MODEL INPUT FILE            B     1     1     1   999     0
*FILES              
MODEL          PTSUB048
FILEX          WAPA9502.PTX                                                                                 
FILEA          WAPA9502.PTA                                                                                 
FILET          WAPA9502.PTT                                                                                 
SPECIES        PTSUB048.SPE C:\DSSAT48\GENOTYPE\                                                            
ECOTYPE        PTSUB048.ECO C:\DSSAT48\GENOTYPE\                                                            
CULTIVAR       PTSUB048.CUL C:\DSSAT48\GENOTYPE\                                                            
PESTS          PTSUB048.PST C:\DSSAT48\PEST\                                                                
SOILS          WA.SOL       C:\DSSAT48\SOIL\                                                                
WEATHERW       WAPA9501.WTH C:\DSSAT48\Weather\                                                             
OUTPUT         OVERVIEW
*SIMULATION CONTROL 
                   1     1     S 1995060  2150 100%                     
                   Y     Y     N     N     N     N     N     Y     M
                   M     M     E     R     S     C     R     1     G     R     2     D     0
                   R     R     R     R     R
                   N     Y     Y     1     Y     Y     Y     Y     N     N     Y     N     Y
!AUTOMATIC MANAGEM  
                   -99     -99   40.  100.   30.   40.   10.
                 30.   50.  100. GS000 IR001  10.0 1.000
                 30.   50.   25. FE001 GS000
                100.     1   20.
                     0     -99  100.    0.
*EXP.DETAILS        
  1WAPA9502 PT PATERSON, WASHINGTON - 1995                                 
*TREATMENTS         
  1 1 1 0 I1 T1 Russet Burbank     
*CULTIVARS          
   PT IB0003 Russet Burbank  
*FIELDS             
   WAPA0004 WAPA9501   0.0  -99.   -99  -99. 100.0   -99 S      -99. WAPA920016-99.00 -99.0
    -99.0000000000  -99.0000000000   -99.000               1.0  100.   1.0 -99.0   -99   -99
*INITIAL CONDITIONS 
   MZ    1995060   200     0  1.00  1.00 -99.0     0  0.21  0.00   90.   30.
      5. 0.260  4.00  3.00
     15. 0.260  4.00  3.00
     30. 0.304  2.00  2.00
     45. 0.280  1.00  1.00
     60. 0.280  1.00  1.00
*PLANTING DETAILS   
   1995095     -99   4.6   4.6     S     R   86.  -99.  15.0 2576.  -99. -99.0 -99.0  10.0
*IRRIGATION         
   0.950   30.   50.  100. GS000 IR001  10.0
   1995088 IR004  12.7
   1995125 IR004   6.4
   1995140 IR004   6.4
   1995144 IR004   6.4
   1995145 IR004   6.4
   1995146 IR004   6.4
   1995147 IR004   6.4
   1995148 IR004   6.4
   1995149 IR004   6.4
   1995150 IR004   6.4
   1995151 IR004   6.4
   1995152 IR004   6.4
   1995153 IR004  12.7
   1995155 IR004   6.4
   1995156 IR004   6.4
   1995157 IR004   6.4
   1995159 IR004   6.4
   1995161 IR004   6.4
   1995163 IR004   6.4
   1995166 IR004   6.4
   1995170 IR004   6.4
   1995171 IR004   6.4
   1995173 IR004   6.4
   1995174 IR004   6.4
   1995176 IR004   6.4
   1995177 IR004   6.4
   1995178 IR004   6.4
   1995179 IR004   6.4
   1995180 IR004   6.4
   1995181 IR004  12.7
   1995182 IR004   6.4
   1995183 IR004   6.4
   1995184 IR004   6.4
   1995185 IR004   6.4
   1995186 IR004   6.4
   1995187 IR004   6.4
   1995188 IR004   6.4
   1995190 IR004   6.4
   1995191 IR004   6.4
   1995192 IR004   6.4
   1995193 IR004   6.4
   1995194 IR004   3.2
   1995195 IR004   6.4
   1995197 IR004   6.4
   1995198 IR004   6.4
   1995199 IR004   3.2
   1995200 IR004   6.4
   1995201 IR004   6.4
   1995202 IR004   6.4
   1995203 IR004   6.4
   1995204 IR004   6.4
   1995206 IR004   6.4
   1995207 IR004  12.7
   1995208 IR004   6.4
   1995209 IR004   6.4
   1995210 IR004   6.4
   1995212 IR004   6.4
   1995213 IR004   6.4
   1995214 IR004   6.4
   1995215 IR004   6.4
   1995216 IR004   6.4
   1995218 IR004   6.4
   1995219 IR004   6.4
   1995220 IR004   6.4
   1995221 IR004   6.4
   1995222 IR004   6.4
   1995223 IR004   6.4
   1995224 IR004   6.4
   1995225 IR004   6.4
   1995226 IR004   6.4
   1995228 IR004   6.4
   1995229 IR004   6.4
   1995231 IR004   6.4
   1995233 IR004   6.4
*FERTILIZERS        
   1995086 FE005 AP002   20.  112.  -99.  -99.  -99.  -99.   -99
   1995140 FE005 AP005    1.   28.  -99.  -99.  -99.  -99.   -99
   1995147 FE005 AP005    1.   28.  -99.  -99.  -99.  -99.   -99
   1995155 FE005 AP005    1.   28.  -99.  -99.  -99.  -99.   -99
   1995166 FE005 AP005    1.   28.  -99.  -99.  -99.  -99.   -99
   1995171 FE005 AP005    1.   28.  -99.  -99.  -99.  -99.   -99
   1995178 FE005 AP005    1.   28.  -99.  -99.  -99.  -99.   -99
   1995185 FE005 AP005    1.   28.  -99.  -99.  -99.  -99.   -99
   1995190 FE005 AP005    1.   29.  -99.  -99.  -99.  -99.   -99
   1995195 FE005 AP005    1.   28.  -99.  -99.  -99.  -99.   -99
   1995206 FE005 AP005    1.   28.  -99.  -99.  -99.  -99.   -99
   1995210 FE005 AP005    1.   28.  -99.  -99.  -99.  -99.   -99
   1995213 FE005 AP005    1.   28.  -99.  -99.  -99.  -99.   -99
   1995222 FE005 AP005    1.   22.  -99.  -99.  -99.  -99.   -99
*RESIDUES           
   1995060 RE203  1500  1.06  0.23  1.75   30.   15. AP002
*CHEMICALS          
*TILLAGE            
   1995060 TI011  15.0
   1995090 TI010  10.0
   1995095 TI033  15.0
   1995121 TI013  15.0
   1995122 TI026  15.0
*ENVIRONMENT        
*HARVEST            
   1995225 GS000   -99   -99  100.    0.
*SOIL               
 WAPA920016  -99         S      -99.   Quincy Sand                                     
 Paterson    USA          45.830-119.870 Fine sand                                         
 BN     0.13   6.2  0.80   64.  1.00  1.00 IB001 IB001 IB001 -99  
    5.       0.050 0.150 0.300 1.000  21.0  1.55 0.500 -99.0 -99.0 -99.0  -9.0  7.60-99.00-99.00-99.00
   15.       0.050 0.150 0.300 1.000  21.0  1.55 0.500 -99.0 -99.0 -99.0  -9.0  7.60-99.00-99.00-99.00
   30.       0.050 0.150 0.300 0.640  21.0  1.55 0.500 -99.0 -99.0 -99.0  -9.0  8.00-99.00-99.00-99.00
   45.       0.050 0.150 0.300 0.410  21.0  1.55 0.500 -99.0 -99.0 -99.0  -9.0  8.30-99.00-99.00-99.00
   60.       0.050 0.150 0.300 0.410  21.0  1.55 0.500 -99.0 -99.0 -99.0  -9.0  8.30-99.00-99.00-99.00
                    
    5.-99.00 -99.0 -99.0 -99.0 -99.0 -99.0 -99.0 -99.0 -99.0 -99.0-99.00 -99.0 -99.0 -99.0 -99.0 -99.0  -99.  -99.
   15.-99.00 -99.0 -99.0 -99.0 -99.0 -99.0 -99.0 -99.0 -99.0 -99.0-99.00 -99.0 -99.0 -99.0 -99.0 -99.0  -99.  -99.
   30.-99.00 -99.0 -99.0 -99.0 -99.0 -99.0 -99.0 -99.0 -99.0 -99.0-99.00 -99.0 -99.0 -99.0 -99.0 -99.0  -99.  -99.
   45.-99.00 -99.0 -99.0 -99.0 -99.0 -99.0 -99.0 -99.0 -99.0 -99.0-99.00 -99.0 -99.0 -99.0 -99.0 -99.0  -99.  -99.
   60.-99.00 -99.0 -99.0 -99.0 -99.0 -99.0 -99.0 -99.0 -99.0 -99.0-99.00 -99.0 -99.0 -99.0 -99.0 -99.0  -99.  -99.
                    
    5.-99.00-99.00-99.00-99.00
   15.-99.00-99.00-99.00-99.00
   30.-99.00-99.00-99.00-99.00
   45.-99.00-99.00-99.00-99.00
   60.-99.00-99.00-99.00-99.00
*CULTIVAR           
IB0003 Russet Burbank   IB0001  1522.  21.6   0.5   0.3  18.8
