*MODEL INPUT FILE            B     1     1     1   999     0
*FILES              
MODEL          PRFRM048
FILEX          AGZG1219.ALX                                                                                 
FILEA          AGZG1219.ALA                                                                                 
FILET          AGZG1219.ALT                                                                                 
SPECIES        ALFRM048.SPE C:\DSSAT48\GENOTYPE\                                                            
ECOTYPE        ALFRM048.ECO C:\DSSAT48\GENOTYPE\                                                            
CULTIVAR       ALFRM048.CUL C:\DSSAT48\GENOTYPE\                                                            
PESTS          ALFRM048.PST C:\DSSAT48\PEST\                                                                
SOILS          AG.SOL       C:\DSSAT48\SOIL\                                                                
WEATHERW       MONT1301.WTH C:\DSSAT48\Weather\                                                             
OUTPUT         OVERVIEW
*SIMULATION CONTROL 
                   1     1     P 2013107  2150 OBSERVED MOW, DATA       
                   Y     Y     Y     N     N     N     N     Y     M
                   M     M     E     F     S     L     R     1     P     S     2     D     0
                   R     A     R     R     R
                   N     Y     Y     1     Y     Y     Y     Y     Y     Y     Y     Y     N
!AUTOMATIC MANAGEM  
                   -99     -99    0.    0.    0.    0.    0.
                 30.   50.  100. GS000 IR004   0.0 0.000
                  0.    0.    0. FE001 GS000
                  0.     0    0.
                     0     -99    0.    0.
*EXP.DETAILS        
  1AGZG1219 AL AUTO-MOW FINCA-SPAIN                                        
*TREATMENTS         
  1 1 1 0 finca -obs harv,data     
*CULTIVARS          
   AL AL0001 Aragon  FD7     
*FIELDS             
   XXXXXXX5 MONT1301   0.0  -99.   -99  -99. 100.0   -99 L      -99. AGFINCAA16-99.00 -99.0
    -99.0000000000  -99.0000000000   -99.000               1.0  100.   1.0 -99.0   -99   -99
*INITIAL CONDITIONS 
               0     0     0  1.00  1.00 -99.0     0  0.00  0.00  100.    0.
      5. 0.244   0.0   0.0
     15. 0.244   0.0   0.0
     30. 0.244   0.0   0.0
     45. 0.218   0.0   0.0
     60. 0.218   0.0   0.0
     90. 0.218   0.0   0.0
    120. 0.237   0.0   0.0
*PLANTING DETAILS   
   2013107     -99 340.0 340.0     S     R   10.    0.   2.0 2000.  150.  32.0   1.0   0.0
*IRRIGATION         
   1.000    0.    0.    0. GS000 IR001   0.0
*FERTILIZERS        
   2016179 FE001 AP001    1.   63.  162.  -99.  -99.  -99.   -99
*RESIDUES           
*CHEMICALS          
*TILLAGE            
*ENVIRONMENT        
*HARVEST            
   2017180 GS000     C     A  100.    0.
*SOIL               
 AGFINCAA16  eurofins    L      -99.   alfalfa finca                                   
 fin         spain        -0.009  -0.099 -99                                               
 G      0.13   6.0  0.60   73.  1.00  1.00 IB001 IB001 IB001 -99  
    5.       0.111 0.244 0.497 1.000 .0900  1.50 0.700  13.0  37.0 -99.0  -9.0  8.00-99.00 16.00-99.00
   15.       0.111 0.244 0.497 1.000 .0900  1.50 0.700  13.0  37.0 -99.0  -9.0  8.00-99.00 16.00-99.00
   30.       0.111 0.244 0.497 1.000 .0900  1.50 0.700  13.0  37.0 -99.0  -9.0  8.00-99.00 16.00-99.00
   45.       0.086 0.218 0.553 0.607 0.680  1.50 0.300  12.0  33.0 -99.0  -9.0  8.00-99.00 13.00-99.00
   60.       0.086 0.218 0.553 0.607 0.680  1.50 0.300  12.0  33.0 -99.0  -9.0  8.00-99.00 13.00-99.00
   90.       0.083 0.218 0.507 0.423 0.680  1.50 0.300  11.0  35.0 -99.0  -9.0  8.00-99.00 11.00-99.00
  120.       0.086 0.237 0.546 0.322 0.680  1.40 0.300  11.0  43.0 -99.0  -9.0  8.00-99.00 14.00-99.00
                    
    5.-99.00 -99.0 -99.0 -99.0 -99.0 -99.0 -99.0 -99.0 -99.0 -99.0-99.00 -99.0 -99.0 -99.0 -99.0 -99.0  -99.  -99.
   15.-99.00 -99.0 -99.0 -99.0 -99.0 -99.0 -99.0 -99.0 -99.0 -99.0-99.00 -99.0 -99.0 -99.0 -99.0 -99.0  -99.  -99.
   30.-99.00 -99.0 -99.0 -99.0 -99.0 -99.0 -99.0 -99.0 -99.0 -99.0-99.00 -99.0 -99.0 -99.0 -99.0 -99.0  -99.  -99.
   45.-99.00 -99.0 -99.0 -99.0 -99.0 -99.0 -99.0 -99.0 -99.0 -99.0-99.00 -99.0 -99.0 -99.0 -99.0 -99.0  -99.  -99.
   60.-99.00 -99.0 -99.0 -99.0 -99.0 -99.0 -99.0 -99.0 -99.0 -99.0-99.00 -99.0 -99.0 -99.0 -99.0 -99.0  -99.  -99.
   90.-99.00 -99.0 -99.0 -99.0 -99.0 -99.0 -99.0 -99.0 -99.0 -99.0-99.00 -99.0 -99.0 -99.0 -99.0 -99.0  -99.  -99.
  120.-99.00 -99.0 -99.0 -99.0 -99.0 -99.0 -99.0 -99.0 -99.0 -99.0-99.00 -99.0 -99.0 -99.0 -99.0 -99.0  -99.  -99.
                    
    5.-99.00-99.00-99.00-99.00
   15.-99.00-99.00-99.00-99.00
   30.-99.00-99.00-99.00-99.00
   45.-99.00-99.00-99.00-99.00
   60.-99.00-99.00-99.00-99.00
   90.-99.00-99.00-99.00-99.00
  120.-99.00-99.00-99.00-99.00
*CULTIVAR           
AL0001 Aragon  FD7      G00001 12.50 0.200 99.00 10.00 18.00 33.00 25.00 1.400 240.0   2.0  0.01 0.020 15.00  2.05 20.00  78.0 0.115 0.035
