*MODEL INPUT FILE            B     1     1     1   999     0
*FILES              
MODEL          RICER048
FILEX          IRPL8501.RIX                                                                                 
FILEA          IRPL8501.RIA                                                                                 
FILET          IRPL8501.RIT                                                                                 
SPECIES        RICER048.SPE C:\DSSAT48\GENOTYPE\                                                            
ECOTYPE        RICER048.ECO C:\DSSAT48\GENOTYPE\                                                            
CULTIVAR       RICER048.CUL C:\DSSAT48\GENOTYPE\                                                            
PESTS          RICER048.PST C:\DSSAT48\PEST\                                                                
SOILS          SOIL.SOL     C:\DSSAT48\SOIL\                                                                
WEATHERW       IRPI8501.WTH C:\DSSAT48\Weather\                                                             
OUTPUT         OVERVIEW
*SIMULATION CONTROL 
                   1     1     S 1985032  2150 IRRI, PILA JAN 85 UREASE 
                   Y     Y     N     N     N     N     N     N     M
                   M     M     E     R     S     C     R     1     G     R     2     D     0
                   R     R     R     R     M
                   N     Y     A     1     Y     Y     Y     Y     Y     Y     D     Y     Y
!AUTOMATIC MANAGEM  
                   -99     -99   40.  100.   30.   40.   10.
                 30.   50.  100. IB001 IB001  10.0 1.000
                 30.   50.   25. IB001 IB001
                100.     1   20.
                     0     -99  100.    0.
*EXP.DETAILS        
  1IRPL8501 RI IRRI, PILA JAN 85 UREASE INHIBITORS 15N                     
*TREATMENTS         
  1 1 0 0 Control 0 N              
*CULTIVARS          
   RI IB0012 IR 58           
*FIELDS             
   IRPL0001 IRPI8501   0.0    0. DR000    0. 100.0 00000 -99     50. IBRI910001-99.00 -99.0
      0.0000000000    0.0000000000     0.000               1.0  100.   1.0   0.0   -99   -99
*INITIAL CONDITIONS 
   RI    1985032   300     0  1.00  1.00 -99.0     0  0.00  0.00  100.   15.
      5. 0.700  12.7 0.100
     15. 0.650  12.7 0.100
     20. 0.650  12.7 0.100
     35. 0.600  3.20 0.100
     50. 0.600  3.20 0.100
*PLANTING DETAILS   
   1985035     -99  75.0  25.0     T     H   20.    0.   2.0    0.   23.  25.0   3.0   0.0
*IRRIGATION         
   1.000   30.   75.  -99. GS000 IR001   1.0
   1985032 IR011   5.0
   1985032 IR009  20.0
   1985032 IR008   2.0
   1985032 IR010   0.0
   1985038 IR011  30.0
   1985038 IR009 100.0
   1985042 IR011  50.0
   1985042 IR009 150.0
*FERTILIZERS        
*RESIDUES           
   1985032 RE001   200  1.33  0.00  0.00  100.   15.   -99
*CHEMICALS          
*TILLAGE            
*ENVIRONMENT        
*HARVEST            
*SOIL               
 IBRI910001  IBSNAT      -99     50.   Andaqueptic Haplaquoll                          
 -99         -99          -0.009  -0.099 UNKNOWN                                           
 -99    0.13   7.5  0.00   87.  1.00  1.00 IB001 IB001 IB001 -99  
    5.       0.289 0.415 0.700 1.000  -99.  0.75 2.450 -99.0 -99.0 -99.0  -9.0  6.20-99.00 40.00-99.00
   15.       0.289 0.415 0.650 0.850  -99.  0.90 2.450 -99.0 -99.0 -99.0  -9.0  6.20-99.00-99.00-99.00
   20.       0.289 0.415 0.650 0.850  -99.  0.90 2.450 -99.0 -99.0 -99.0  -9.0  6.20-99.00-99.00-99.00
   35.       0.289 0.415 0.600 0.200  -99.  0.90 1.450 -99.0 -99.0 -99.0  -9.0  6.40-99.00-99.00-99.00
   50.       0.289 0.415 0.600 0.050  -99.  0.88 1.450 -99.0 -99.0 -99.0  -9.0  6.40-99.00-99.00-99.00
                    
    5.-99.00 -99.0 -99.0 -99.0 -99.0 -99.0 -99.0 -99.0 -99.0 -99.0-99.00 -99.0 -99.0 -99.0 -99.0 -99.0  -99.  -99.
   15.-99.00 -99.0 -99.0 -99.0 -99.0 -99.0 -99.0 -99.0 -99.0 -99.0-99.00 -99.0 -99.0 -99.0 -99.0 -99.0  -99.  -99.
   20.-99.00 -99.0 -99.0 -99.0 -99.0 -99.0 -99.0 -99.0 -99.0 -99.0-99.00 -99.0 -99.0 -99.0 -99.0 -99.0  -99.  -99.
   35.-99.00 -99.0 -99.0 -99.0 -99.0 -99.0 -99.0 -99.0 -99.0 -99.0-99.00 -99.0 -99.0 -99.0 -99.0 -99.0  -99.  -99.
   50.-99.00 -99.0 -99.0 -99.0 -99.0 -99.0 -99.0 -99.0 -99.0 -99.0-99.00 -99.0 -99.0 -99.0 -99.0 -99.0  -99.  -99.
                    
    5.-99.00-99.00-99.00-99.00
   15.-99.00-99.00-99.00-99.00
   20.-99.00-99.00-99.00-99.00
   35.-99.00-99.00-99.00-99.00
   50.-99.00-99.00-99.00-99.00
*CULTIVAR           
IB0012 IR 58            IB0001 254.8  96.4 378.4  10.6  77.0 0.020  1.00 83.00  33.9  15.0  15.0
