*MODEL INPUT FILE            B     1     1     1   999     0
*FILES              
MODEL          CRGRO048
FILEX          CISR9704.VBX                                                                                 
FILEA          CISR9704.VBA                                                                                 
FILET          CISR9704.VBT                                                                                 
SPECIES        VBGRO048.SPE C:\DSSAT48\GENOTYPE\                                                            
ECOTYPE        VBGRO048.ECO C:\DSSAT48\GENOTYPE\                                                            
CULTIVAR       VBGRO048.CUL C:\DSSAT48\GENOTYPE\                                                            
PESTS          VBGRO048.PST C:\DSSAT48\PEST\                                                                
SOILS          SOIL.SOL     C:\DSSAT48\SOIL\                                                                
WEATHERW       CISR9701.WTH C:\DSSAT48\Weather\                                                             
OUTPUT         OVERVIEW
*SIMULATION CONTROL 
                   1     1     S 1997164  2150 MUCUNA SANTA ROSA        
                   Y     Y     Y     N     N     N     N     N     M
                   M     M     E     R     S     L     R     1     G     R     2     D     0
                   R     N     N     N     M
                   N     Y     Y     1     Y     Y     Y     Y     N     N     Y     N     N
!AUTOMATIC MANAGEM  
                   -99     -99   40.  100.   30.   40.   10.
                 30.   50.  100. GS000 IR001  10.0 1.000
                 30.   50.   25. FE001 GS000
                100.     1   20.
                     0     -99  100.    0.
*EXP.DETAILS        
  1CISR9704 VB 1997 CIMMYT OF SANTA ROSA (+3-4)                            
*TREATMENTS         
  1 0 0 0 Veracruz black low dens  
*CULTIVARS          
   VB CI0004 Veracruz Black  
*FIELDS             
   NPELALLO CISR9701   0.0    0. DR000    0. 100.0 00000 CLLO   -99. CI00970002-99.00 -99.0
    -95.1169967651   18.3069992065   400.000           10000.0  100.   1.5   0.0   -99   -99
*INITIAL CONDITIONS 
   MZ    1997164    10     0  1.00  1.00 -99.0     0  0.00  0.00  100.   15.
      5. 0.281  1.00  1.90
     15. 0.281  1.00  1.90
     20. 0.281  1.00  1.90
     28. 0.255 0.500  1.50
     37. 0.255 0.500  1.50
     49. 0.293 0.500 0.600
     61. 0.293 0.500 0.600
     74. 0.293 0.500 0.600
     86. 0.293 0.500 0.600
    108. 0.298 0.500 0.200
    130. 0.298 0.500 0.200
*PLANTING DETAILS   
   1997180 1997187   2.0   2.0     S     R   80.    0.   4.0  -99.  -99. -99.0   2.0   0.0
*IRRIGATION         
   1.000    0.    0.    0. GS000 IR001   0.0
*FERTILIZERS        
*RESIDUES           
*CHEMICALS          
*TILLAGE            
*ENVIRONMENT        
   1997164 A 0.0 A 0.0 A 3.0 S 4.0 A 0.0 A   0 A 0.0 A 0.0
*HARVEST            
     98037 GS000   -99   -99  100.    0.
*SOIL               
 CI00970002  SCS         CLLO   -99.   SUELO COLORADA                                  
 SANTA ROSA2 MEXICO       18.000 -95.100 HUMIC HAPLUDULTS                                  
 YR     0.14  10.7  0.80   80.  1.00  1.00 IB001 IB001 IB001 -99  
    5.       0.185 0.315 0.406 0.750  -99.  1.38 2.000  34.0  50.0   3.0  -9.0  5.40-99.00 41.00-99.00
   15.       0.185 0.315 0.406 0.750  -99.  1.38 2.000  34.0  50.0   3.0  -9.0  5.40-99.00 41.00-99.00
   20.       0.185 0.315 0.406 0.750  -99.  1.38 2.000  34.0  50.0   3.0  -9.0  5.40-99.00 41.00-99.00
   28.       0.200 0.325 0.406 0.500  -99.  1.38 1.600  36.0  48.0   2.0  -9.0  5.60-99.00 45.00-99.00
   37.       0.200 0.325 0.406 0.500  -99.  1.38 1.600  36.0  48.0   2.0  -9.0  5.60-99.00 45.00-99.00
   49.       0.238 0.365 0.395 0.150  -99.  1.42 0.700  47.0  45.0   5.0  -9.0  5.50-99.00 65.00-99.00
   61.       0.238 0.365 0.395 0.150  -99.  1.42 0.700  47.0  45.0   5.0  -9.0  5.50-99.00 65.00-99.00
   74.       0.238 0.365 0.395 0.150  -99.  1.42 0.700  47.0  45.0   5.0  -9.0  5.50-99.00 65.00-99.00
   86.       0.238 0.365 0.395 0.150  -99.  1.42 0.700  47.0  45.0   5.0  -9.0  5.50-99.00 65.00-99.00
  108.       0.182 0.314 0.399 0.000  -99.  1.41 0.220  34.0  55.0   5.0  -9.0  4.80-99.00 70.00-99.00
  130.       0.182 0.314 0.399 0.000  -99.  1.41 0.220  34.0  55.0   5.0  -9.0  4.80-99.00 70.00-99.00
                    
    5.-99.00 -99.0 -99.0 -99.0 -99.0 -99.0 -99.0 -99.0 -99.0 -99.0-99.00 -99.0 -99.0 -99.0 -99.0 -99.0  -99.  -99.
   15.-99.00 -99.0 -99.0 -99.0 -99.0 -99.0 -99.0 -99.0 -99.0 -99.0-99.00 -99.0 -99.0 -99.0 -99.0 -99.0  -99.  -99.
   20.-99.00 -99.0 -99.0 -99.0 -99.0 -99.0 -99.0 -99.0 -99.0 -99.0-99.00 -99.0 -99.0 -99.0 -99.0 -99.0  -99.  -99.
   28.-99.00 -99.0 -99.0 -99.0 -99.0 -99.0 -99.0 -99.0 -99.0 -99.0-99.00 -99.0 -99.0 -99.0 -99.0 -99.0  -99.  -99.
   37.-99.00 -99.0 -99.0 -99.0 -99.0 -99.0 -99.0 -99.0 -99.0 -99.0-99.00 -99.0 -99.0 -99.0 -99.0 -99.0  -99.  -99.
   49.-99.00 -99.0 -99.0 -99.0 -99.0 -99.0 -99.0 -99.0 -99.0 -99.0-99.00 -99.0 -99.0 -99.0 -99.0 -99.0  -99.  -99.
   61.-99.00 -99.0 -99.0 -99.0 -99.0 -99.0 -99.0 -99.0 -99.0 -99.0-99.00 -99.0 -99.0 -99.0 -99.0 -99.0  -99.  -99.
   74.-99.00 -99.0 -99.0 -99.0 -99.0 -99.0 -99.0 -99.0 -99.0 -99.0-99.00 -99.0 -99.0 -99.0 -99.0 -99.0  -99.  -99.
   86.-99.00 -99.0 -99.0 -99.0 -99.0 -99.0 -99.0 -99.0 -99.0 -99.0-99.00 -99.0 -99.0 -99.0 -99.0 -99.0  -99.  -99.
  108.-99.00 -99.0 -99.0 -99.0 -99.0 -99.0 -99.0 -99.0 -99.0 -99.0-99.00 -99.0 -99.0 -99.0 -99.0 -99.0  -99.  -99.
  130.-99.00 -99.0 -99.0 -99.0 -99.0 -99.0 -99.0 -99.0 -99.0 -99.0-99.00 -99.0 -99.0 -99.0 -99.0 -99.0  -99.  -99.
                    
    5.-99.00-99.00-99.00-99.00
   15.-99.00-99.00-99.00-99.00
   20.-99.00-99.00-99.00-99.00
   28.-99.00-99.00-99.00-99.00
   37.-99.00-99.00-99.00-99.00
   49.-99.00-99.00-99.00-99.00
   61.-99.00-99.00-99.00-99.00
   74.-99.00-99.00-99.00-99.00
   86.-99.00-99.00-99.00-99.00
  108.-99.00-99.00-99.00-99.00
  130.-99.00-99.00-99.00-99.00
*CULTIVAR           
CI0004 Veracruz Black   VB0001 12.00 0.660 57.92  6.00 15.00 55.49 15.00 1.000 500.0 400.0  1.00 1.100 22.00  4.50 20.00  70.0 0.265 0.043
