*MODEL INPUT FILE            B     1     1     1   999     0
*FILES              
MODEL          CRGRO048
FILEX          CLMO8501.SBX                                                                                 
FILEA          CLMO8501.SBA                                                                                 
FILET          CLMO8501.SBT                                                                                 
SPECIES        SBGRO048.SPE C:\DSSAT48\GENOTYPE\                                                            
ECOTYPE        SBGRO048.ECO C:\DSSAT48\GENOTYPE\                                                            
CULTIVAR       SBGRO048.CUL C:\DSSAT48\GENOTYPE\                                                            
PESTS          SBGRO048.PST C:\DSSAT48\PEST\                                                                
SOILS          SOIL.SOL     C:\DSSAT48\SOIL\                                                                
WEATHERW       CLMO8501.WTH C:\DSSAT48\Weather\                                                             
OUTPUT         OVERVIEW
*SIMULATION CONTROL 
                   1     1     S 1985140  2150 EVANS, IRRIGATED AND NON 
                   Y     Y     Y     N     N     N     N     Y     M
                   M     M     E     R     S     L     R     1     G     R     2     D     0
                   R     R     R     R     M
                   N     Y     Y     1     Y     Y     Y     Y     N     N     Y     N     N
!AUTOMATIC MANAGEM  
                   -99     -99   40.  100.   30.   40.   10.
                 30.   50.  100. IB001 IB001  10.0 0.750
                 30.   50.   25. IB001 IB001
                100.     1   20.
                     0     -99  100.    0.
*EXP.DETAILS        
  1CLMO8501 SB EVANS, IRRIGATED AND NON-IRRIGATED                          
*TREATMENTS         
  1 1 0 0 85 EVANS, IRR, MORRIS, MN
*CULTIVARS          
   SB IB0011 EVANS (0)       
*FIELDS             
   CLMO0001 CLMO8501   0.0    0. IB000    0. 100.0 00000 -99    182. IBSB910032-99.00 -99.0
    -99.0000000000  -99.0000000000   -99.000               1.0  100.   1.0 -99.0   -99   -99
*INITIAL CONDITIONS 
   SB    1985140     1     0  1.00  1.00 -99.0     0  0.00  0.00  100.    0.
      5. 0.467   0.0   0.0
     15. 0.449   0.0   0.0
     19. 0.444   0.0   0.0
     32. 0.444   0.0   0.0
     47. 0.444   0.0   0.0
     62. 0.444   0.0   0.0
     92. 0.333   0.0   0.0
    122. 0.333   0.0   0.0
    152. 0.333   0.0   0.0
    182. 0.333   0.0   0.0
*PLANTING DETAILS   
   1985140     -99  25.3  25.3     S     R   74.    0.   4.0  -99.  -99. -99.0 -99.0 -99.0
*IRRIGATION         
   0.750   30.   75.  -99. GS000 IR001   0.0
   1985183 IR001  41.0
   1985189 IR001  54.0
   1985196 IR001  56.0
   1985200 IR001  51.0
   1985214 IR001  40.0
   1985221 IR001  25.0
*FERTILIZERS        
*RESIDUES           
*CHEMICALS          
*TILLAGE            
*ENVIRONMENT        
*HARVEST            
*SOIL               
 IBSB910032  Sioux       -99    182.   Sioux Loam                                      
 -99         -99          -0.009  -0.099 Sioux Loam                                        
 -99    0.11   9.0  0.50   77.  1.00  1.00 IB001 IB001 IB001 -99  
    5.       0.265 0.467 0.653 1.000  -99.  1.20 -99.0 -99.0 -99.0 -99.0  -9.0  7.00-99.00-99.00-99.00
   15.       0.269 0.449 0.595 1.000  -99.  1.20 -99.0 -99.0 -99.0 -99.0  -9.0  7.00-99.00-99.00-99.00
   19.       0.270 0.444 0.580 1.000  -99.  1.20 -99.0 -99.0 -99.0 -99.0  -9.0  7.00-99.00-99.00-99.00
   32.       0.270 0.444 0.580 1.000  -99.  1.20 -99.0 -99.0 -99.0 -99.0  -9.0  7.00-99.00-99.00-99.00
   47.       0.270 0.444 0.580 0.500  -99.  1.20 -99.0 -99.0 -99.0 -99.0  -9.0  7.00-99.00-99.00-99.00
   62.       0.270 0.444 0.580 0.500  -99.  1.20 -99.0 -99.0 -99.0 -99.0  -9.0  7.00-99.00-99.00-99.00
   92.       0.202 0.333 0.435 0.250  -99.  1.20 -99.0 -99.0 -99.0 -99.0  -9.0  7.00-99.00-99.00-99.00
  122.       0.202 0.333 0.435 0.100  -99.  1.20 -99.0 -99.0 -99.0 -99.0  -9.0  7.00-99.00-99.00-99.00
  152.       0.202 0.333 0.435 0.000  -99.  1.20 -99.0 -99.0 -99.0 -99.0  -9.0  7.00-99.00-99.00-99.00
  182.       0.202 0.333 0.435 0.000  -99.  1.20 -99.0 -99.0 -99.0 -99.0  -9.0  7.00-99.00-99.00-99.00
                    
    5.-99.00 -99.0 -99.0 -99.0 -99.0 -99.0 -99.0 -99.0 -99.0 -99.0-99.00 -99.0 -99.0 -99.0 -99.0 -99.0  -99.  -99.
   15.-99.00 -99.0 -99.0 -99.0 -99.0 -99.0 -99.0 -99.0 -99.0 -99.0-99.00 -99.0 -99.0 -99.0 -99.0 -99.0  -99.  -99.
   19.-99.00 -99.0 -99.0 -99.0 -99.0 -99.0 -99.0 -99.0 -99.0 -99.0-99.00 -99.0 -99.0 -99.0 -99.0 -99.0  -99.  -99.
   32.-99.00 -99.0 -99.0 -99.0 -99.0 -99.0 -99.0 -99.0 -99.0 -99.0-99.00 -99.0 -99.0 -99.0 -99.0 -99.0  -99.  -99.
   47.-99.00 -99.0 -99.0 -99.0 -99.0 -99.0 -99.0 -99.0 -99.0 -99.0-99.00 -99.0 -99.0 -99.0 -99.0 -99.0  -99.  -99.
   62.-99.00 -99.0 -99.0 -99.0 -99.0 -99.0 -99.0 -99.0 -99.0 -99.0-99.00 -99.0 -99.0 -99.0 -99.0 -99.0  -99.  -99.
   92.-99.00 -99.0 -99.0 -99.0 -99.0 -99.0 -99.0 -99.0 -99.0 -99.0-99.00 -99.0 -99.0 -99.0 -99.0 -99.0  -99.  -99.
  122.-99.00 -99.0 -99.0 -99.0 -99.0 -99.0 -99.0 -99.0 -99.0 -99.0-99.00 -99.0 -99.0 -99.0 -99.0 -99.0  -99.  -99.
  152.-99.00 -99.0 -99.0 -99.0 -99.0 -99.0 -99.0 -99.0 -99.0 -99.0-99.00 -99.0 -99.0 -99.0 -99.0 -99.0  -99.  -99.
  182.-99.00 -99.0 -99.0 -99.0 -99.0 -99.0 -99.0 -99.0 -99.0 -99.0-99.00 -99.0 -99.0 -99.0 -99.0 -99.0  -99.  -99.
                    
    5.-99.00-99.00-99.00-99.00
   15.-99.00-99.00-99.00-99.00
   19.-99.00-99.00-99.00-99.00
   32.-99.00-99.00-99.00-99.00
   47.-99.00-99.00-99.00-99.00
   62.-99.00-99.00-99.00-99.00
   92.-99.00-99.00-99.00-99.00
  122.-99.00-99.00-99.00-99.00
  152.-99.00-99.00-99.00-99.00
  182.-99.00-99.00-99.00-99.00
*CULTIVAR           
IB0011 EVANS (0)        SB0001 14.10 0.171 16.80  7.80 13.80 30.00 26.00 1.020 400.0 180.0  1.00 0.180 24.00  2.20 11.50  77.0 0.405 0.205
