*MODEL INPUT FILE            B     1     1     1   999     0
*FILES              
MODEL          PRFRM048
FILEX          AGZG1229.ALX                                                                                 
FILEA          AGZG1229.ALA                                                                                 
FILET          AGZG1229.ALT                                                                                 
SPECIES        ALFRM048.SPE C:\DSSAT48\GENOTYPE\                                                            
ECOTYPE        ALFRM048.ECO C:\DSSAT48\GENOTYPE\                                                            
CULTIVAR       ALFRM048.CUL C:\DSSAT48\GENOTYPE\                                                            
PESTS          ALFRM048.PST C:\DSSAT48\PEST\                                                                
SOILS          AG.SOL       C:\DSSAT48\SOIL\                                                                
WEATHERW       MONT1201.WTH C:\DSSAT48\Weather\                                                             
OUTPUT         OVERVIEW
*SIMULATION CONTROL 
                   1     1     P 2012001  2150 Obs harvests             
                   Y     Y     Y     N     N     N     N     Y     M
                   M     M     E     F     S     L     R     1     P     S     2     D     0
                   R     R     R     R     R
                   N     Y     Y     1     Y     Y     Y     Y     Y     Y     Y     Y     N
!AUTOMATIC MANAGEM  
                   -99     -99    0.    0.    0.    0.    0.
                 30.   50.  100. GS000 IR004   0.0 0.000
                  0.    0.    0. FE001 GS000
                  0.     0    0.
                     0     -99    0.    0.
*EXP.DETAILS        
  1AGZG1229 AL Auto-Mow CAVERO - SPAIN                                     
*TREATMENTS         
  1 1 1 0 cavero-obs harv          
*CULTIVARS          
   AL AL0001 Aragon  FD7     
*FIELDS             
   XXXXXXX5 MONT1201   0.0  -99.   -99  -99. 100.0   -99 L      -99. AGFINCAA16-99.00 -99.0
    -99.0000000000  -99.0000000000   -99.000               1.0  100.   1.0 -99.0   -99   -99
*INITIAL CONDITIONS 
               0     0     0  1.00  1.00 -99.0     0  0.00  0.00  100.    0.
      5. 0.244   0.0   0.0
     15. 0.244   0.0   0.0
     30. 0.244   0.0   0.0
     45. 0.218   0.0   0.0
     60. 0.218   0.0   0.0
     90. 0.218   0.0   0.0
    120. 0.237   0.0   0.0
*PLANTING DETAILS   
   2012001     -99 330.0 330.0     S     R   10.    0.   2.0 2000.  150.  32.0   1.0   0.0
*IRRIGATION         
   1.000   30.   50.  100. GS000 IR001  10.0
   2012086 IR004  25.0
   2012093 IR004  23.0
   2012102 IR004  30.0
   2012104 IR004  24.0
   2012115 IR004  32.0
   2012137 IR004  25.0
   2012139 IR004  24.0
   2012146 IR004  29.0
   2012150 IR004  29.0
   2012152 IR004  35.0
   2012157 IR004  29.0
   2012159 IR004  34.0
   2012177 IR004  29.0
   2012179 IR004  36.0
   2012184 IR004  20.0
   2012186 IR004  26.0
   2012187 IR004  13.0
   2012188 IR004  31.0
   2012199 IR004  30.0
   2012201 IR004  26.0
   2012207 IR004  15.0
   2012208 IR004  30.0
   2012213 IR004  44.0
   2012214 IR004  15.0
   2012216 IR004  23.0
   2012227 IR004  30.0
   2012230 IR004  30.0
   2012234 IR004  25.0
   2012237 IR004  16.0
   2012241 IR004  33.0
   2012242 IR004  33.0
   2012244 IR004  28.0
   2012248 IR004  31.0
   2012249 IR004  18.0
   2012251 IR004  23.0
   2012265 IR004  23.0
   2012269 IR004  13.0
   2012277 IR004  10.0
   2012283 IR004  23.0
   2013105 IR004  25.0
   2013136 IR004  14.0
   2013136 IR004  14.0
   2013140 IR004  25.0
   2013140 IR004  25.0
   2013143 IR004  21.0
   2013143 IR004  21.0
   2013157 IR004  25.0
   2013158 IR004  15.0
   2013168 IR004  14.0
   2013170 IR004  25.0
   2013172 IR004  25.0
   2013184 IR004  28.0
   2013186 IR004  23.0
   2013190 IR004  29.0
   2013193 IR004  25.0
   2013197 IR004  20.0
   2013213 IR004  24.0
   2013218 IR004  25.0
   2013221 IR004  19.0
   2013225 IR004  25.0
   2013228 IR004  25.0
   2013232 IR004  30.0
   2013233 IR004  28.0
   2013235 IR004  20.0
   2013239 IR004  30.0
   2013253 IR004  24.0
   2013256 IR004  16.0
   2013260 IR004  20.0
   2013263 IR004  20.0
   2013267 IR004  30.0
   2013270 IR004  25.0
   2013281 IR004  33.0
   2014098 IR004  19.0
   2014120 IR004  27.0
   2014126 IR004  26.0
   2014129 IR004  24.0
   2014134 IR004  30.0
   2014136 IR004  30.0
   2014140 IR004  35.0
   2014156 IR004  31.0
   2014162 IR004  24.0
   2014164 IR004  22.0
   2014169 IR004  35.0
   2014170 IR004  15.0
   2014171 IR004  26.0
   2014183 IR004  39.0
   2014189 IR004  35.0
   2014196 IR004  38.0
   2014199 IR004  35.0
   2014203 IR004  67.0
   2014206 IR004  15.0
   2014219 IR004  36.0
   2014224 IR004  33.0
   2014226 IR004  30.0
   2014231 IR004  26.0
   2014232 IR004  17.0
   2014234 IR004  19.0
   2014238 IR004  25.0
   2014241 IR004  21.0
   2014253 IR004  36.0
   2014259 IR004  25.0
   2014266 IR004  25.0
   2014273 IR004  22.0
*FERTILIZERS        
   2012179 FE016 AP002    5.    0.    0.  166.  -99.  -99.   -99
   2012179 FE015 AP002    5.    0.   87.    0.  -99.  -99.   -99
   2013178 FE016 AP002    5.    0.    0.  166.  -99.  -99.   -99
   2013178 FE015 AP002    5.    0.   87.    0.  -99.  -99.   -99
   2014178 FE016 AP002    5.    0.    0.  166.  -99.  -99.   -99
   2014178 FE015 AP002    5.    0.   87.    0.  -99.  -99.   -99
*RESIDUES           
*CHEMICALS          
*TILLAGE            
*ENVIRONMENT        
*HARVEST            
   2014280 GS000     C     A  100.    0.
*SOIL               
 AGFINCAA16  eurofins    L      -99.   alfalfa finca                                   
 fin         spain        -0.009  -0.099 -99                                               
 G      0.13   6.0  0.60   73.  1.00  1.00 IB001 IB001 IB001 -99  
    5.       0.111 0.244 0.497 1.000 .0900  1.50 0.700  13.0  37.0 -99.0  -9.0  8.00-99.00 16.00-99.00
   15.       0.111 0.244 0.497 1.000 .0900  1.50 0.700  13.0  37.0 -99.0  -9.0  8.00-99.00 16.00-99.00
   30.       0.111 0.244 0.497 1.000 .0900  1.50 0.700  13.0  37.0 -99.0  -9.0  8.00-99.00 16.00-99.00
   45.       0.086 0.218 0.553 0.607 0.680  1.50 0.300  12.0  33.0 -99.0  -9.0  8.00-99.00 13.00-99.00
   60.       0.086 0.218 0.553 0.607 0.680  1.50 0.300  12.0  33.0 -99.0  -9.0  8.00-99.00 13.00-99.00
   90.       0.083 0.218 0.507 0.423 0.680  1.50 0.300  11.0  35.0 -99.0  -9.0  8.00-99.00 11.00-99.00
  120.       0.086 0.237 0.546 0.322 0.680  1.40 0.300  11.0  43.0 -99.0  -9.0  8.00-99.00 14.00-99.00
                    
    5.-99.00 -99.0 -99.0 -99.0 -99.0 -99.0 -99.0 -99.0 -99.0 -99.0-99.00 -99.0 -99.0 -99.0 -99.0 -99.0  -99.  -99.
   15.-99.00 -99.0 -99.0 -99.0 -99.0 -99.0 -99.0 -99.0 -99.0 -99.0-99.00 -99.0 -99.0 -99.0 -99.0 -99.0  -99.  -99.
   30.-99.00 -99.0 -99.0 -99.0 -99.0 -99.0 -99.0 -99.0 -99.0 -99.0-99.00 -99.0 -99.0 -99.0 -99.0 -99.0  -99.  -99.
   45.-99.00 -99.0 -99.0 -99.0 -99.0 -99.0 -99.0 -99.0 -99.0 -99.0-99.00 -99.0 -99.0 -99.0 -99.0 -99.0  -99.  -99.
   60.-99.00 -99.0 -99.0 -99.0 -99.0 -99.0 -99.0 -99.0 -99.0 -99.0-99.00 -99.0 -99.0 -99.0 -99.0 -99.0  -99.  -99.
   90.-99.00 -99.0 -99.0 -99.0 -99.0 -99.0 -99.0 -99.0 -99.0 -99.0-99.00 -99.0 -99.0 -99.0 -99.0 -99.0  -99.  -99.
  120.-99.00 -99.0 -99.0 -99.0 -99.0 -99.0 -99.0 -99.0 -99.0 -99.0-99.00 -99.0 -99.0 -99.0 -99.0 -99.0  -99.  -99.
                    
    5.-99.00-99.00-99.00-99.00
   15.-99.00-99.00-99.00-99.00
   30.-99.00-99.00-99.00-99.00
   45.-99.00-99.00-99.00-99.00
   60.-99.00-99.00-99.00-99.00
   90.-99.00-99.00-99.00-99.00
  120.-99.00-99.00-99.00-99.00
*CULTIVAR           
AL0001 Aragon  FD7      G00001 12.50 0.200 99.00 10.00 18.00 33.00 25.00 1.400 240.0   2.0  0.01 0.020 15.00  2.05 20.00  78.0 0.115 0.035
