*MODEL INPUT FILE            B     1     1     1   999     0
*FILES              
MODEL          CRGRO048
FILEX          IGQU8903.BNX                                                                                 
FILEA          IGQU8903.BNA                                                                                 
FILET          IGQU8903.BNT                                                                                 
SPECIES        BNGRO048.SPE C:\DSSAT48\GENOTYPE\                                                            
ECOTYPE        BNGRO048.ECO C:\DSSAT48\GENOTYPE\                                                            
CULTIVAR       BNGRO048.CUL C:\DSSAT48\GENOTYPE\                                                            
PESTS          BNGRO048.PST C:\DSSAT48\PEST\                                                                
SOILS          SOIL.SOL     C:\DSSAT48\SOIL\                                                                
WEATHERW       IGQU8901.WTH C:\DSSAT48\Weather\                                                             
OUTPUT         OVERVIEW
*SIMULATION CONTROL 
                   1     1     S 1989157  2150 ICTA-OSTUA,RABIA DE GATO 
                   Y     N     Y     N     N     N     N     Y     M
                   M     M     E     R     S     L     R     1     G     R     2     D     0
                   R     R     R     R     M
                   N     Y     Y     1     Y     N     Y     Y     N     N     Y     N     N
!AUTOMATIC MANAGEM  
                   -99     -99   40.  100.   30.   40.   10.
                 30.   50.  100. GS000 IR001  10.0 1.000
                 30.   50.   25. FE001 GS000
                100.     1   20.
                     0     -99  100.    0.
*EXP.DETAILS        
  1IGQU8903 BN ICTA-OSTUA,RABIA DE GATO,TURBO-III;1989                     
*TREATMENTS         
  1 1 0 0 ICTA-OSTUA               
*CULTIVARS          
   BN IB0006 ICTA-Ostua      
*FIELDS             
   IGQU0001 IGQU8901   0.0    0. DR000    0. 100.0 00000 -99    150. IBBN910038-99.00 -99.0
     14.2700004578  -90.0000000000     0.000               1.0  100.   1.0   0.0   -99   -99
*INITIAL CONDITIONS 
   BN    1989157    60     0  1.00  1.00 -99.0   600  0.53  0.00  100.   15.
      5. 0.091   0.0   0.0
     15. 0.091   0.0   0.0
     30. 0.121   0.0   0.0
     45. 0.121   0.0   0.0
     58. 0.128   0.0   0.0
     72. 0.128   0.0   0.0
     95. 0.136   0.0   0.0
    120. 0.136   0.0   0.0
    150. 0.266   0.0   0.0
*PLANTING DETAILS   
   1989157     -99  21.7  21.7     S     R   40.    0.   3.0  -99.  -99. -99.0 -99.0   0.0
*IRRIGATION         
   1.000    0.    0.    0. GS000 IR001   0.0
*FERTILIZERS        
   1989157 FE005   001    5.   39.  -99.  -99.  -99.  -99.   -99
*RESIDUES           
*CHEMICALS          
*TILLAGE            
*ENVIRONMENT        
*HARVEST            
*SOIL               
 IBBN910038  ICTA        -99    150.   San_Fernando,Quezada                            
 S_Fernando  Guatemala    -0.009  -0.099 LOAMY-SKELETAL,MIXED,ISOHYPERTHERMIC TYPIC USTIFLU
 -99    0.13  11.3  0.40   80.  1.00  0.80 IB001 IB001 IB001 -99  
    5.       0.191 0.299 0.369 1.000  -99.  1.27 2.250 -99.0 -99.0 -99.0  -9.0  7.00-99.00-99.00-99.00
   15.       0.191 0.299 0.369 1.000  -99.  1.27 2.250 -99.0 -99.0 -99.0  -9.0  7.00-99.00-99.00-99.00
   30.       0.160 0.273 0.352 0.750  -99.  1.11 0.870 -99.0 -99.0 -99.0  -9.0  6.70-99.00-99.00-99.00
   45.       0.160 0.273 0.352 0.750  -99.  1.11 0.870 -99.0 -99.0 -99.0  -9.0  6.70-99.00-99.00-99.00
   58.       0.244 0.361 0.376 0.500  -99.  1.30 1.200 -99.0 -99.0 -99.0  -9.0  6.70-99.00-99.00-99.00
   72.       0.244 0.361 0.376 0.500  -99.  1.30 1.200 -99.0 -99.0 -99.0  -9.0  6.70-99.00-99.00-99.00
   95.       0.170 0.285 0.355 0.350  -99.  1.13 0.670 -99.0 -99.0 -99.0  -9.0  6.90-99.00-99.00-99.00
  120.       0.095 0.207 0.332 0.200  -99.  1.02 0.360 -99.0 -99.0 -99.0  -9.0  7.00-99.00-99.00-99.00
  150.       0.163 0.266 0.363 0.150  -99.  1.28 0.600 -99.0 -99.0 -99.0  -9.0  7.10-99.00-99.00-99.00
                    
    5.-99.00 -99.0 -99.0 -99.0 -99.0 -99.0 -99.0 -99.0 -99.0 -99.0-99.00 -99.0 -99.0 -99.0 -99.0 -99.0  -99.  -99.
   15.-99.00 -99.0 -99.0 -99.0 -99.0 -99.0 -99.0 -99.0 -99.0 -99.0-99.00 -99.0 -99.0 -99.0 -99.0 -99.0  -99.  -99.
   30.-99.00 -99.0 -99.0 -99.0 -99.0 -99.0 -99.0 -99.0 -99.0 -99.0-99.00 -99.0 -99.0 -99.0 -99.0 -99.0  -99.  -99.
   45.-99.00 -99.0 -99.0 -99.0 -99.0 -99.0 -99.0 -99.0 -99.0 -99.0-99.00 -99.0 -99.0 -99.0 -99.0 -99.0  -99.  -99.
   58.-99.00 -99.0 -99.0 -99.0 -99.0 -99.0 -99.0 -99.0 -99.0 -99.0-99.00 -99.0 -99.0 -99.0 -99.0 -99.0  -99.  -99.
   72.-99.00 -99.0 -99.0 -99.0 -99.0 -99.0 -99.0 -99.0 -99.0 -99.0-99.00 -99.0 -99.0 -99.0 -99.0 -99.0  -99.  -99.
   95.-99.00 -99.0 -99.0 -99.0 -99.0 -99.0 -99.0 -99.0 -99.0 -99.0-99.00 -99.0 -99.0 -99.0 -99.0 -99.0  -99.  -99.
  120.-99.00 -99.0 -99.0 -99.0 -99.0 -99.0 -99.0 -99.0 -99.0 -99.0-99.00 -99.0 -99.0 -99.0 -99.0 -99.0  -99.  -99.
  150.-99.00 -99.0 -99.0 -99.0 -99.0 -99.0 -99.0 -99.0 -99.0 -99.0-99.00 -99.0 -99.0 -99.0 -99.0 -99.0  -99.  -99.
                    
    5.-99.00-99.00-99.00-99.00
   15.-99.00-99.00-99.00-99.00
   30.-99.00-99.00-99.00-99.00
   45.-99.00-99.00-99.00-99.00
   58.-99.00-99.00-99.00-99.00
   72.-99.00-99.00-99.00-99.00
   95.-99.00-99.00-99.00-99.00
  120.-99.00-99.00-99.00-99.00
  150.-99.00-99.00-99.00-99.00
*CULTIVAR           
IB0006 ICTA-Ostua       MESIND 12.17 0.000 26.50  3.50  8.50 18.50 18.00 1.000 320.0 133.0  1.00 0.200 19.00  5.40 14.00  78.0 0.235 0.030
