*MODEL INPUT FILE            B     1     1     1   999     0
*FILES              
MODEL          CRGRO048
FILEX          ITBW9205.CHX                                                                                 
FILEA          ITBW9205.CHA                                                                                 
FILET          ITBW9205.CHT                                                                                 
SPECIES        CHGRO048.SPE C:\DSSAT48\GENOTYPE\                                                            
ECOTYPE        CHGRO048.ECO C:\DSSAT48\GENOTYPE\                                                            
CULTIVAR       CHGRO048.CUL C:\DSSAT48\GENOTYPE\                                                            
PESTS          CHGRO048.PST C:\DSSAT48\PEST\                                                                
SOILS          IC.SOL       C:\DSSAT48\SOIL\                                                                
WEATHERW       ITHY9201.WTH C:\DSSAT48\Weather\                                                             
OUTPUT         OVERVIEW
*SIMULATION CONTROL 
                   1     1     S 1992298  2150 LIGHT AND WATER USE EFFI 
                   Y     Y     Y     N     N     N     N     Y     D
                   M     M     E     R     S     L     R     1     G     R     2     D     0
                   R     R     R     R     M
                   N     Y     Y     3     Y     Y     Y     Y     N     N     Y     N     N
!AUTOMATIC MANAGEM  
                   -99     -99   40.  100.   30.   40.   10.
                 30.   50.  100. GS000 IR001  10.0 1.000
                 30.   50.   25. FE001 GS000
                100.     1   20.
                     0     -99  100.    0.
*EXP.DETAILS        
  1ITBW9205 CH IRRIGATION * CULTIVARS; 1992                                
*TREATMENTS         
  1 1 0 0 I0 NONIRRIGATED ICCV 8820
*CULTIVARS          
   CH IB0005 ICCV 88202 v48ca
*FIELDS             
   ITBW0001 ITHY9201   0.0    0. DR000    0. 100.0 00000 -99    180. ICCH910009-99.00 -99.0
      0.0000000000    0.0000000000     0.000               1.0  100.   1.0   0.0   -99   -99
*INITIAL CONDITIONS 
   PN    1992308   100     0  1.00  1.00 -99.0  1000  0.53  0.00    0.   15.
      5. 0.326   0.0   0.0
     15. 0.348   0.0   0.0
     20. 0.348   0.0   0.0
     30. 0.407   0.0   0.0
     40. 0.437   0.0   0.0
     50. 0.452   0.0   0.0
     60. 0.467   0.0   0.0
     75. 0.464   0.0   0.0
     90. 0.469   0.0   0.0
    110. 0.462   0.0   0.0
    130. 0.453   0.0   0.0
    155. 0.452   0.0   0.0
    180. 0.409   0.0   0.0
*PLANTING DETAILS   
   1992308     -99  32.3  32.3     S     R   38.    0.   5.0  -99.  -99. -99.0 -99.0   0.0
*IRRIGATION         
   1.000   30.   75.  -99. GS000 IR001  10.0
   1992308 IR001  50.0
   1992316 IR001  30.0
*FERTILIZERS        
   1992298 FE006   001    8.   18.  -99.  -99.  -99.  -99.   -99
*RESIDUES           
*CHEMICALS          
*TILLAGE            
*ENVIRONMENT        
*HARVEST            
*SOIL               
 ICCH910009  IBSNAT      -99    180. VERY FINE MONTMORILLONITIC ISOHYPERTHERMIC        
 -99         -99          -0.099  -0.099 UNKNOWN (  5)                                     
 -99    0.13   6.0  0.70   85.  1.00  0.95 SA001 SA001 SA001 -99  
    5.       0.300 0.380 0.480 1.000  -99.  1.50 0.730 -99.0 -99.0 -99.0  -9.0  8.80-99.00-99.00  0.00
   15.       0.230 0.390 0.480 1.000  -99.  1.50 0.730 -99.0 -99.0 -99.0  -9.0  8.80-99.00-99.00  0.00
   20.       0.230 0.390 0.480 1.000  -99.  1.50 0.730 -99.0 -99.0 -99.0  -9.0  8.80-99.00-99.00  0.00
   30.       0.290 0.440 0.550 0.638  -99.  1.51 0.540 -99.0 -99.0 -99.0  -9.0  9.20-99.00-99.00  0.00
   40.       0.310 0.460 0.570 0.472  -99.  1.51 0.540 -99.0 -99.0 -99.0  -9.0  9.20-99.00-99.00  0.00
   50.       0.290 0.460 0.570 0.410  -99.  1.37 0.470 -99.0 -99.0 -99.0  -9.0  9.40-99.00-99.00  0.00
   60.       0.280 0.480 0.580 0.350  -99.  1.37 0.470 -99.0 -99.0 -99.0  -9.0  9.40-99.00-99.00  0.00
   75.       0.280 0.480 0.580 0.285  -99.  1.38 0.390 -99.0 -99.0 -99.0  -9.0  9.40-99.00-99.00  0.00
   90.       0.304 0.475 0.570 0.223  -99.  1.38 0.390 -99.0 -99.0 -99.0  -9.0  9.40-99.00-99.00  0.00
  110.       0.316 0.470 0.570 0.170  -99.  1.40 0.280 -99.0 -99.0 -99.0  -9.0  9.40-99.00-99.00  0.00
  130.       0.328 0.450 0.550 0.120  -99.  1.40 0.280 -99.0 -99.0 -99.0  -9.0  9.40-99.00-99.00  0.00
  155.       0.354 0.450 0.550 0.067  -99.  1.40 0.250 -99.0 -99.0 -99.0  -9.0  9.40-99.00-99.00  0.00
  180.       0.368 0.450 0.470 0.037  -99.  1.40 0.250 -99.0 -99.0 -99.0  -9.0  9.40-99.00-99.00  0.00
                    
    5.-99.00 -99.0 -99.0 -99.0 -99.0 -99.0 -99.0 -99.0 -99.0 -99.0-99.00 -99.0 -99.0 -99.0 -99.0 -99.0  -99.  -99.
   15.-99.00 -99.0 -99.0 -99.0 -99.0 -99.0 -99.0 -99.0 -99.0 -99.0-99.00 -99.0 -99.0 -99.0 -99.0 -99.0  -99.  -99.
   20.-99.00 -99.0 -99.0 -99.0 -99.0 -99.0 -99.0 -99.0 -99.0 -99.0-99.00 -99.0 -99.0 -99.0 -99.0 -99.0  -99.  -99.
   30.-99.00 -99.0 -99.0 -99.0 -99.0 -99.0 -99.0 -99.0 -99.0 -99.0-99.00 -99.0 -99.0 -99.0 -99.0 -99.0  -99.  -99.
   40.-99.00 -99.0 -99.0 -99.0 -99.0 -99.0 -99.0 -99.0 -99.0 -99.0-99.00 -99.0 -99.0 -99.0 -99.0 -99.0  -99.  -99.
   50.-99.00 -99.0 -99.0 -99.0 -99.0 -99.0 -99.0 -99.0 -99.0 -99.0-99.00 -99.0 -99.0 -99.0 -99.0 -99.0  -99.  -99.
   60.-99.00 -99.0 -99.0 -99.0 -99.0 -99.0 -99.0 -99.0 -99.0 -99.0-99.00 -99.0 -99.0 -99.0 -99.0 -99.0  -99.  -99.
   75.-99.00 -99.0 -99.0 -99.0 -99.0 -99.0 -99.0 -99.0 -99.0 -99.0-99.00 -99.0 -99.0 -99.0 -99.0 -99.0  -99.  -99.
   90.-99.00 -99.0 -99.0 -99.0 -99.0 -99.0 -99.0 -99.0 -99.0 -99.0-99.00 -99.0 -99.0 -99.0 -99.0 -99.0  -99.  -99.
  110.-99.00 -99.0 -99.0 -99.0 -99.0 -99.0 -99.0 -99.0 -99.0 -99.0-99.00 -99.0 -99.0 -99.0 -99.0 -99.0  -99.  -99.
  130.-99.00 -99.0 -99.0 -99.0 -99.0 -99.0 -99.0 -99.0 -99.0 -99.0-99.00 -99.0 -99.0 -99.0 -99.0 -99.0  -99.  -99.
  155.-99.00 -99.0 -99.0 -99.0 -99.0 -99.0 -99.0 -99.0 -99.0 -99.0-99.00 -99.0 -99.0 -99.0 -99.0 -99.0  -99.  -99.
  180.-99.00 -99.0 -99.0 -99.0 -99.0 -99.0 -99.0 -99.0 -99.0 -99.0-99.00 -99.0 -99.0 -99.0 -99.0 -99.0  -99.  -99.
                    
    5.-99.00-99.00-99.00-99.00
   15.-99.00-99.00-99.00-99.00
   20.-99.00-99.00-99.00-99.00
   30.-99.00-99.00-99.00-99.00
   40.-99.00-99.00-99.00-99.00
   50.-99.00-99.00-99.00-99.00
   60.-99.00-99.00-99.00-99.00
   75.-99.00-99.00-99.00-99.00
   90.-99.00-99.00-99.00-99.00
  110.-99.00-99.00-99.00-99.00
  130.-99.00-99.00-99.00-99.00
  155.-99.00-99.00-99.00-99.00
  180.-99.00-99.00-99.00-99.00
*CULTIVAR           
IB0005 ICCV 88202 v48ca DFAULT 11.00-0.143 29.00  5.50  9.50 28.50 38.00 1.000 200.0  10.0  0.96 0.255 29.00  1.30 18.00  85.0 0.216 0.048
