*MODEL INPUT FILE            B     1     1     1   999     0
*FILES              
MODEL          TRARO048
FILEX          IBHK8901.TRX                                                                                 
FILEA          IBHK8901.TRA                                                                                 
FILET          IBHK8901.TRT                                                                                 
SPECIES        TRARO048.SPE C:\DSSAT48\GENOTYPE\                                                            
ECOTYPE        TRARO048.ECO C:\DSSAT48\GENOTYPE\                                                            
CULTIVAR       TRARO048.CUL C:\DSSAT48\GENOTYPE\                                                            
PESTS          TRARO048.PST C:\DSSAT48\PEST\                                                                
SOILS          SOIL.SOL     C:\DSSAT48\SOIL\                                                                
WEATHERW       IBHK8901.WTH C:\DSSAT48\Weather\                                                             
OUTPUT         OVERVIEW
*SIMULATION CONTROL 
                   1     1     S 1989107  2150 HALK, MODEL DEVELOP. TAR 
                   Y     Y     N     N     N     N     N     N     M
                   M     M     E     R     S     C     R     1     G     R     2     D     0
                   R     A     R     R     M
                   N     Y     Y     1     Y     N     Y     Y     N     N     Y     N     N
!AUTOMATIC MANAGEM  
                   -99     -99   40.  100.   30.   40.   10.
                 50.   50.  100. GS000 IR001  10.0 1.000
                 30.   50.   25. FE001 GS000
                100.     1   20.
                     0     -99  100.    0.
*EXP.DETAILS        
  1IBHK8901 TR HALK, MODEL DEVELOP. TARO 1989-HALEAKALA                    
*TREATMENTS         
  1 1 1 0 LEHUA CULTIVARS          
*CULTIVARS          
   TR IB0001 LEHUA           
*FIELDS             
   IBHK0001 IBHK8901   0.0    0. DR000    0. 100.0 00000 -99    153. IBAR910035-99.00 -99.0
    -99.0000000000  -99.0000000000   -99.000               1.0  100.   1.0 -99.0   -99   -99
*INITIAL CONDITIONS 
   TR    1989107   100     0  1.00  1.00 -99.0  1000  0.53  0.00    0.   20.
      5. 0.227  12.5  29.4
     15. 0.227  12.5  29.4
     30. 0.212  9.33  20.3
     40. 0.178  2.50  8.00
     51. 0.178  1.00  5.00
     62. 0.163  1.00  1.00
     74. 0.163  1.00  1.00
     97. 0.113  1.00  1.00
    123. 0.056 0.500 0.500
    153. 0.073 0.500 0.100
*PLANTING DETAILS   
   1989109     -99   2.8   2.8     S     R   60.    0.  15.0  -99.  -99.  21.0 -99.0   0.0
*IRRIGATION         
   1.000    0.    0.    0. GS000 IR001   0.0
*FERTILIZERS        
   1989107 FE005   001    5.   50.  -99.  -99.  -99.  -99.   -99
   1989165 FE005   001    0.   50.  -99.  -99.  -99.  -99.   -99
   1989279 FE005   001    0.   50.  -99.  -99.  -99.  -99.   -99
*RESIDUES           
*CHEMICALS          
*TILLAGE            
*ENVIRONMENT        
*HARVEST            
*SOIL               
 IBAR910035  83P0882     -99    153.   IBAR910035                                      
 -99         -99          -0.009  -0.099 CLAYEY, OXIDIC, ISOTHERMIC HUMOXIC TROPOHUMULT (35
 -99    0.13  10.1  0.60   85.  1.00  1.00 SA001 SA001 SA001 -99  
    5.       0.155 0.298 0.419 1.000  -99.  1.17 3.580 -99.0 -99.0 -99.0  -9.0  5.10-99.00 20.00-99.00
   15.       0.155 0.298 0.419 0.800  -99.  1.17 3.580 -99.0 -99.0 -99.0  -9.0  5.10-99.00 20.00-99.00
   30.       0.142 0.281 0.413 0.520  -99.  1.32 2.311 -99.0 -99.0 -99.0  -9.0  4.82-99.00 20.00-99.00
   40.       0.109 0.247 0.426 0.250  -99.  1.65 1.300 -99.0 -99.0 -99.0  -9.0  4.50-99.00 20.00-99.00
   51.       0.109 0.247 0.426 0.200  -99.  1.65 1.300 -99.0 -99.0 -99.0  -9.0  4.50-99.00 20.00-99.00
   62.       0.104 0.222 0.388 0.200  -99.  1.61 0.980 -99.0 -99.0 -99.0  -9.0  4.70-99.00 20.00-99.00
   74.       0.104 0.222 0.388 0.100  -99.  1.61 0.980 -99.0 -99.0 -99.0  -9.0  4.70-99.00 20.00-99.00
   97.       0.067 0.158 0.361 0.010  -99.  1.68 0.880 -99.0 -99.0 -99.0  -9.0  4.70-99.00 20.00-99.00
  123.       0.026 0.085 0.354 0.000  -99.  1.70 3.140 -99.0 -99.0 -99.0  -9.0  4.90-99.00 20.00-99.00
  153.       0.034 0.111 0.354 0.000  -99.  1.70 1.750 -99.0 -99.0 -99.0  -9.0  5.10-99.00 20.00-99.00
                    
    5.-99.00 -99.0 -99.0 -99.0 -99.0 -99.0 -99.0 -99.0 -99.0 -99.0-99.00 -99.0 -99.0 -99.0 -99.0 -99.0  -99.  -99.
   15.-99.00 -99.0 -99.0 -99.0 -99.0 -99.0 -99.0 -99.0 -99.0 -99.0-99.00 -99.0 -99.0 -99.0 -99.0 -99.0  -99.  -99.
   30.-99.00 -99.0 -99.0 -99.0 -99.0 -99.0 -99.0 -99.0 -99.0 -99.0-99.00 -99.0 -99.0 -99.0 -99.0 -99.0  -99.  -99.
   40.-99.00 -99.0 -99.0 -99.0 -99.0 -99.0 -99.0 -99.0 -99.0 -99.0-99.00 -99.0 -99.0 -99.0 -99.0 -99.0  -99.  -99.
   51.-99.00 -99.0 -99.0 -99.0 -99.0 -99.0 -99.0 -99.0 -99.0 -99.0-99.00 -99.0 -99.0 -99.0 -99.0 -99.0  -99.  -99.
   62.-99.00 -99.0 -99.0 -99.0 -99.0 -99.0 -99.0 -99.0 -99.0 -99.0-99.00 -99.0 -99.0 -99.0 -99.0 -99.0  -99.  -99.
   74.-99.00 -99.0 -99.0 -99.0 -99.0 -99.0 -99.0 -99.0 -99.0 -99.0-99.00 -99.0 -99.0 -99.0 -99.0 -99.0  -99.  -99.
   97.-99.00 -99.0 -99.0 -99.0 -99.0 -99.0 -99.0 -99.0 -99.0 -99.0-99.00 -99.0 -99.0 -99.0 -99.0 -99.0  -99.  -99.
  123.-99.00 -99.0 -99.0 -99.0 -99.0 -99.0 -99.0 -99.0 -99.0 -99.0-99.00 -99.0 -99.0 -99.0 -99.0 -99.0  -99.  -99.
  153.-99.00 -99.0 -99.0 -99.0 -99.0 -99.0 -99.0 -99.0 -99.0 -99.0-99.00 -99.0 -99.0 -99.0 -99.0 -99.0  -99.  -99.
                    
    5.-99.00-99.00-99.00-99.00
   15.-99.00-99.00-99.00-99.00
   30.-99.00-99.00-99.00-99.00
   40.-99.00-99.00-99.00-99.00
   51.-99.00-99.00-99.00-99.00
   62.-99.00-99.00-99.00-99.00
   74.-99.00-99.00-99.00-99.00
   97.-99.00-99.00-99.00-99.00
  123.-99.00-99.00-99.00-99.00
  153.-99.00-99.00-99.00-99.00
*CULTIVAR           
IB0001 LEHUA            IB0001  800. 1130.  940.  980.  1.00  1.00   1.0 150.0 120.0
