*MODEL INPUT FILE            B     1     1     1   999     0
*FILES              
MODEL          PTSUB048
FILEX          OSBO8801.PTX                                                                                 
FILEA          OSBO8801.PTA                                                                                 
FILET          OSBO8801.PTT                                                                                 
SPECIES        PTSUB048.SPE C:\DSSAT48\GENOTYPE\                                                            
ECOTYPE        PTSUB048.ECO C:\DSSAT48\GENOTYPE\                                                            
CULTIVAR       PTSUB048.CUL C:\DSSAT48\GENOTYPE\                                                            
PESTS          PTSUB048.PST C:\DSSAT48\PEST\                                                                
SOILS          SOIL.SOL     C:\DSSAT48\SOIL\                                                                
WEATHERW       OSBO8801.WTH C:\DSSAT48\Weather\                                                             
OUTPUT         OVERVIEW
*SIMULATION CONTROL 
                   1     1     S 1988001  2150 Oregon: Hermiston commer 
                   Y     Y     N     N     N     N     N     Y     M
                   M     M     E     R     S     C     R     1     G     R     2     D     0
                   R     A     R     R     R
                   N     Y     Y     1     Y     N     Y     Y     N     N     Y     N     N
!AUTOMATIC MANAGEM  
                   -99     -99   40.  100.   30.   40.   10.
                 50.   80.  100. IB001 IBI01  10.0 1.000
                 30.   50.   25. IB001 IB001
                100.     1   20.
                     0     -99  100.    0.
*EXP.DETAILS        
  1OSBO8801 PT OREGON: HERMISTON COMMERCIAL DATA, 1988                     
*TREATMENTS         
  1 1 0 0 NASA-PIX Field #1        
*CULTIVARS          
   PT IB0003 Russet Burbank  
*FIELDS             
   OSBO0001 OSBO8801   0.0    0. IB000    0. 100.0 00000 -99      0. IBPT910005-99.00 -99.0
    -99.0000000000  -99.0000000000   -99.000               1.0  100.   1.0 -99.0   -99   -99
*INITIAL CONDITIONS 
   PT    1988001  1000     0  1.00  1.00 -99.0     0  0.00  0.00  100.    0.
      5. 0.290  5.00  4.00
     15. 0.290  4.50  3.50
     25. 0.290  4.00  3.00
     40. 0.290  2.00  2.00
     52. 0.290  1.00  1.00
     65. 0.290  1.00  1.00
*PLANTING DETAILS   
   1988106 1988129   4.8   4.8     S     R   71.    0.  10.0  960.  -99. -99.0 -99.0  10.0
*IRRIGATION         
   1.000   30.   75.  -99. GS000 IR001  10.0
   1988109 IR001  15.0
   1988116 IR001  15.0
   1988123 IR001   8.0
   1988127 IR001   8.0
   1988130 IR001   8.0
   1988133 IR001   8.0
   1988137 IR001   8.0
   1988140 IR001   8.0
   1988144 IR001   8.0
   1988148 IR001   8.0
   1988151 IR001  10.0
   1988155 IR001   9.0
   1988158 IR001   8.0
   1988159 IR001   7.0
   1988160 IR001   8.0
   1988161 IR001   7.0
   1988162 IR001   7.0
   1988163 IR001   7.0
   1988164 IR001   8.0
   1988165 IR001   8.0
   1988166 IR001   7.0
   1988167 IR001   8.0
   1988168 IR001   7.0
   1988169 IR001   7.0
   1988170 IR001   7.0
   1988171 IR001   8.0
   1988172 IR001   8.0
   1988173 IR001   7.0
   1988174 IR001   8.0
   1988175 IR001   7.0
   1988176 IR001   7.0
   1988177 IR001   7.0
   1988178 IR001   8.0
   1988179 IR001   8.0
   1988180 IR001   7.0
   1988181 IR001   8.0
   1988182 IR001   7.0
   1988183 IR001   7.0
   1988184 IR001   7.0
   1988185 IR001   8.0
   1988186 IR001   9.0
   1988187 IR001   9.0
   1988188 IR001   9.0
   1988189 IR001   9.0
   1988190 IR001   8.0
   1988191 IR001   8.0
   1988192 IR001   8.0
   1988193 IR001   9.0
   1988194 IR001   9.0
   1988195 IR001   9.0
   1988196 IR001   9.0
   1988197 IR001   9.0
   1988198 IR001   8.0
   1988199 IR001   8.0
   1988200 IR001   9.0
   1988201 IR001   9.0
   1988202 IR001   9.0
   1988203 IR001   9.0
   1988204 IR001   9.0
   1988205 IR001   8.0
   1988206 IR001   8.0
   1988207 IR001   9.0
   1988208 IR001   9.0
   1988209 IR001   9.0
   1988210 IR001   9.0
   1988211 IR001   9.0
   1988212 IR001   8.0
   1988213 IR001   8.0
   1988214 IR001   9.0
   1988215 IR001   7.0
   1988216 IR001   8.0
   1988217 IR001   8.0
   1988218 IR001   7.0
   1988219 IR001   8.0
   1988220 IR001   8.0
   1988221 IR001   9.0
   1988222 IR001   7.0
   1988223 IR001   8.0
   1988224 IR001   8.0
   1988225 IR001   7.0
   1988226 IR001   8.0
   1988227 IR001   8.0
   1988228 IR001   9.0
   1988229 IR001   7.0
   1988230 IR001   8.0
   1988231 IR001   8.0
   1988232 IR001   7.0
   1988233 IR001   8.0
   1988234 IR001   8.0
   1988235 IR001   9.0
   1988236 IR001   7.0
   1988237 IR001   8.0
   1988238 IR001   8.0
   1988239 IR001   7.0
   1988240 IR001   8.0
   1988241 IR001   8.0
   1988242 IR001   9.0
   1988243 IR001   7.0
   1988244 IR001   8.0
   1988245 IR001   8.0
   1988246 IR001   7.0
   1988247 IR001   8.0
   1988248 IR001   8.0
   1988249 IR001   7.0
   1988253 IR001   6.0
   1988256 IR001   7.0
   1988259 IR001   6.0
   1988263 IR001  13.0
   1988270 IR001  13.0
*FERTILIZERS        
   1988050 FE003   001   15.   10.  -99.  -99.  -99.  -99.   -99
   1988106 FE003   001   15.   67.  -99.  -99.  -99.  -99.   -99
   1988116 FE003   001    1.   20.  -99.  -99.  -99.  -99.   -99
   1988123 FE003   001    1.   20.  -99.  -99.  -99.  -99.   -99
   1988130 FE003   001    1.   20.  -99.  -99.  -99.  -99.   -99
   1988137 FE003   001    1.   20.  -99.  -99.  -99.  -99.   -99
   1988144 FE003   001    1.   30.  -99.  -99.  -99.  -99.   -99
   1988151 FE003   001    1.   20.  -99.  -99.  -99.  -99.   -99
   1988158 FE003   001    1.   20.  -99.  -99.  -99.  -99.   -99
   1988165 FE003   001    1.   20.  -99.  -99.  -99.  -99.   -99
   1988172 FE003   001    1.   20.  -99.  -99.  -99.  -99.   -99
   1988179 FE003   001    1.   20.  -99.  -99.  -99.  -99.   -99
   1988186 FE003   001    1.   20.  -99.  -99.  -99.  -99.   -99
   1988193 FE003   001    1.   20.  -99.  -99.  -99.  -99.   -99
   1988200 FE003   001    1.   20.  -99.  -99.  -99.  -99.   -99
   1988207 FE003   001    1.   20.  -99.  -99.  -99.  -99.   -99
*RESIDUES           
   1988001 RE001  8500  1.14  0.00  0.00  100.   15.   -99
*CHEMICALS          
*TILLAGE            
*ENVIRONMENT        
*HARVEST            
   1988274 GS000   -99   -99  100.    0.
*SOIL               
 IBPT910005  IBSNAT      -99      0.   Sandy Loam (Abedeen Idaho, 1978)                
 Aberdeen    USA          -0.009  -0.099 UNKNOWN                                           
 -99    0.14   5.0  0.60   60.  1.00  1.00 SA001 SA001 SA001 -99  
    5.       0.110 0.250 0.330 0.800  -99.  1.20 2.500 -99.0 -99.0 -99.0  -9.0  7.00-99.00-99.00-99.00
   15.       0.110 0.250 0.330 0.900  -99.  1.20 2.250 -99.0 -99.0 -99.0  -9.0  7.00-99.00-99.00-99.00
   25.       0.110 0.250 0.330 1.000  -99.  1.20 2.000 -99.0 -99.0 -99.0  -9.0  7.00-99.00-99.00-99.00
   40.       0.110 0.250 0.330 0.500  -99.  1.20 1.500 -99.0 -99.0 -99.0  -9.0  7.00-99.00-99.00-99.00
   52.       0.110 0.250 0.330 0.050  -99.  1.20 1.000 -99.0 -99.0 -99.0  -9.0  7.00-99.00-99.00-99.00
   65.       0.110 0.250 0.330 0.050  -99.  1.20 1.000 -99.0 -99.0 -99.0  -9.0  7.00-99.00-99.00-99.00
                    
    5.-99.00 -99.0 -99.0 -99.0 -99.0 -99.0 -99.0 -99.0 -99.0 -99.0-99.00 -99.0 -99.0 -99.0 -99.0 -99.0  -99.  -99.
   15.-99.00 -99.0 -99.0 -99.0 -99.0 -99.0 -99.0 -99.0 -99.0 -99.0-99.00 -99.0 -99.0 -99.0 -99.0 -99.0  -99.  -99.
   25.-99.00 -99.0 -99.0 -99.0 -99.0 -99.0 -99.0 -99.0 -99.0 -99.0-99.00 -99.0 -99.0 -99.0 -99.0 -99.0  -99.  -99.
   40.-99.00 -99.0 -99.0 -99.0 -99.0 -99.0 -99.0 -99.0 -99.0 -99.0-99.00 -99.0 -99.0 -99.0 -99.0 -99.0  -99.  -99.
   52.-99.00 -99.0 -99.0 -99.0 -99.0 -99.0 -99.0 -99.0 -99.0 -99.0-99.00 -99.0 -99.0 -99.0 -99.0 -99.0  -99.  -99.
   65.-99.00 -99.0 -99.0 -99.0 -99.0 -99.0 -99.0 -99.0 -99.0 -99.0-99.00 -99.0 -99.0 -99.0 -99.0 -99.0  -99.  -99.
                    
    5.-99.00-99.00-99.00-99.00
   15.-99.00-99.00-99.00-99.00
   25.-99.00-99.00-99.00-99.00
   40.-99.00-99.00-99.00-99.00
   52.-99.00-99.00-99.00-99.00
   65.-99.00-99.00-99.00-99.00
*CULTIVAR           
IB0003 Russet Burbank   IB0001  1522.  21.6   0.5   0.3  18.8
