*MODEL INPUT FILE            B     1     1     1   999     0
*FILES              
MODEL          SWCER048
FILEX          UFCI0501.SWX                                                                                 
FILEA          UFCI0501.SWA                                                                                 
FILET          UFCI0501.SWT                                                                                 
SPECIES        SWCER048.SPE C:\DSSAT48\GENOTYPE\                                                            
ECOTYPE        SWCER048.ECO C:\DSSAT48\GENOTYPE\                                                            
CULTIVAR       SWCER048.CUL C:\DSSAT48\GENOTYPE\                                                            
PESTS          SWCER048.PST C:\DSSAT48\PEST\                                                                
SOILS          SOIL.SOL     C:\DSSAT48\SOIL\                                                                
WEATHERW       UFCI0501.WTH C:\DSSAT48\Weather\                                                             
OUTPUT         OVERVIEW
*SIMULATION CONTROL 
                   1     1     S 2005001  2150 DEFAULT SIMULATION CONTR 
                   Y     Y     N     N     N     N     N     Y     M
                   M     M     E     R     S     R     R     1     G     R     2     D     0
                   R     R     R     R     R
                   N     Y     Y     1     Y     Y     Y     Y     Y     Y     Y     Y     Y
!AUTOMATIC MANAGEM  
                   -99     -99   40.  100.   30.   40.   10.
                 30.   90.  100. GS000 IR004  10.0 1.000
                 30.   50.   25. FE001 GS000
                100.     1   20.
                     0     -99  100.    0.
*EXP.DETAILS        
  1UFCI0501 SW 2005 MICROWEX 4                                             
*TREATMENTS         
  1 1 1 0 100% N                   
*CULTIVARS          
   SW SW0003 BSS0977 sh2     
*FIELDS             
   PINEACRE UFCI0501   0.0  -99. DR000  -99. 100.0     0 S      180. IBMZ910214-99.00 -99.0
     29.4099998474  -82.1800003052    21.000               1.0   99.  99.0  99.0   -99   -99
*INITIAL CONDITIONS 
   SB    2005071     0     0  1.00  1.00 -99.0     0  0.00  0.00  100.    0.
      5. 0.210 0.100 0.300
     15. 0.210 0.100 0.300
     30. 0.210 0.100 0.300
     45. 0.210 0.100 0.200
     60. 0.210 0.100 0.100
     90. 0.210 0.100 0.100
    120. 0.210 0.100 0.100
    150. 0.210 0.100 0.100
    180. 0.210 0.100 0.100
*PLANTING DETAILS   
   2005071     -99 -99.0   8.1     S     R   76.  -99.   4.0  -99.  -99. -99.0 -99.0 -99.0
*IRRIGATION         
   1.000   30.   75.  -99. GS000 IR001   0.0
   2005082 IR004   7.4
   2005089 IR004   5.1
   2005090 IR004  12.6
   2005091 IR004  29.8
   2005096 IR004  21.4
   2005103 IR004   3.8
   2005104 IR004   1.4
   2005110 IR004   1.8
   2005111 IR004   6.8
   2005112 IR004   5.4
   2005117 IR004   5.5
   2005123 IR004  16.5
   2005130 IR004  19.1
   2005133 IR004  12.5
   2005138 IR004  12.5
*FERTILIZERS        
   2005068 FE010 AP005    0.   15.  -99.  -99.  -99.  -99.   -99
   2005090 FE010 AP005    0.   18.  -99.  -99.  -99.  -99.   -99
   2005091 FE010 AP005    0.   18.  -99.  -99.  -99.  -99.   -99
   2005096 FE010 AP005    0.   33.  -99.  -99.  -99.  -99.   -99
   2005103 FE010 AP005    0.   33.  -99.  -99.  -99.  -99.   -99
   2005110 FE010 AP005    0.   28.  -99.  -99.  -99.  -99.   -99
   2005117 FE010 AP005    0.   30.  -99.  -99.  -99.  -99.   -99
   2005124 FE010 AP005    0.   30.  -99.  -99.  -99.  -99.   -99
   2005130 FE010 AP005    0.   30.  -99.  -99.  -99.  -99.   -99
   2005133 FE010 AP005    0.   30.  -99.  -99.  -99.  -99.   -99
   2005138 FE010 AP005    0.   30.  -99.  -99.  -99.  -99.   -99
*RESIDUES           
*CHEMICALS          
*TILLAGE            
*ENVIRONMENT        
*HARVEST            
   2005153 GS000     H     A  100.  100.
*SOIL               
 IBMZ910214  Gainesville S      180.   Millhopper Fine Sand                            
 Gainesville USA          29.600 -82.370 Loamy,silic,hyperth Arenic Paleudult              
 -99    0.18   2.0  0.65   60.  1.00  0.92 IB001 IB001 IB001 -99  
    5.       0.026 0.096 0.345 1.000  7.40  1.66 0.670   1.7   0.9   0.0  -9.0  7.00-99.00 20.00-99.00
   15.       0.025 0.105 0.345 1.000  7.40  1.66 0.670   1.7   0.9   0.0  -9.0  7.00-99.00-99.00-99.00
   30.       0.075 0.120 0.345 0.700  14.8  1.66 0.170   2.4   2.6   0.0  -9.0  7.00-99.00-99.00-99.00
   45.       0.025 0.086 0.345 0.300  3.70  1.66 0.170   2.4   2.6   0.0  -9.0  7.00-99.00-99.00-99.00
   60.       0.025 0.072 0.345 0.300  3.70  1.66 0.170   2.4   2.6   0.0  -9.0  7.00-99.00-99.00-99.00
   90.       0.028 0.072 0.345 0.100  3.70  1.66 0.170   2.4   2.6   0.0  -9.0  7.00-99.00-99.00-99.00
  120.       0.028 0.080 0.345 0.100 0.100  1.66 0.180   7.7   3.1   0.0  -9.0  7.00-99.00-99.00-99.00
  150.       0.029 0.090 0.345 0.050 0.100  1.66 0.150   7.7   3.1   0.0  -9.0  7.00-99.00-99.00-99.00
  180.       0.029 0.090 0.345 0.050 0.100  1.66 0.100   7.7   3.1   0.0  -9.0  7.00-99.00-99.00-99.00
                    
    5.-99.00 -99.0 -99.0 -99.0 -99.0 -99.0 -99.0 -99.0 -99.0 -99.0-99.00 -99.0 -99.0 -99.0 -99.0 -99.0  -99.  -99.
   15.-99.00 -99.0 -99.0 -99.0 -99.0 -99.0 -99.0 -99.0 -99.0 -99.0-99.00 -99.0 -99.0 -99.0 -99.0 -99.0  -99.  -99.
   30.-99.00 -99.0 -99.0 -99.0 -99.0 -99.0 -99.0 -99.0 -99.0 -99.0-99.00 -99.0 -99.0 -99.0 -99.0 -99.0  -99.  -99.
   45.-99.00 -99.0 -99.0 -99.0 -99.0 -99.0 -99.0 -99.0 -99.0 -99.0-99.00 -99.0 -99.0 -99.0 -99.0 -99.0  -99.  -99.
   60.-99.00 -99.0 -99.0 -99.0 -99.0 -99.0 -99.0 -99.0 -99.0 -99.0-99.00 -99.0 -99.0 -99.0 -99.0 -99.0  -99.  -99.
   90.-99.00 -99.0 -99.0 -99.0 -99.0 -99.0 -99.0 -99.0 -99.0 -99.0-99.00 -99.0 -99.0 -99.0 -99.0 -99.0  -99.  -99.
  120.-99.00 -99.0 -99.0 -99.0 -99.0 -99.0 -99.0 -99.0 -99.0 -99.0-99.00 -99.0 -99.0 -99.0 -99.0 -99.0  -99.  -99.
  150.-99.00 -99.0 -99.0 -99.0 -99.0 -99.0 -99.0 -99.0 -99.0 -99.0-99.00 -99.0 -99.0 -99.0 -99.0 -99.0  -99.  -99.
  180.-99.00 -99.0 -99.0 -99.0 -99.0 -99.0 -99.0 -99.0 -99.0 -99.0-99.00 -99.0 -99.0 -99.0 -99.0 -99.0  -99.  -99.
                    
    5.-99.00-99.00-99.00-99.00
   15.-99.00-99.00-99.00-99.00
   30.-99.00-99.00-99.00-99.00
   45.-99.00-99.00-99.00-99.00
   60.-99.00-99.00-99.00-99.00
   90.-99.00-99.00-99.00-99.00
  120.-99.00-99.00-99.00-99.00
  150.-99.00-99.00-99.00-99.00
  180.-99.00-99.00-99.00-99.00
*CULTIVAR           
SW0003 BSS0977 sh2      IB0001  175.0 0.300 700.0 500.0  5.00 50.00
