*MODEL INPUT FILE            B     1     1     1   999     0
*FILES              
MODEL          CRGRO048
FILEX          SWIF2101.LTX                                                                                 
FILEA          SWIF2101.LTA                                                                                 
FILET          SWIF2101.LTT                                                                                 
SPECIES        LTGRO048.SPE C:\DSSAT48\GENOTYPE\                                                            
ECOTYPE        LTGRO048.ECO C:\DSSAT48\GENOTYPE\                                                            
CULTIVAR       LTGRO048.CUL C:\DSSAT48\GENOTYPE\                                                            
PESTS          LTGRO048.PST C:\DSSAT48\PEST\                                                                
SOILS          CA.SOL       C:\DSSAT48\SOIL\                                                                
WEATHERW       SWIF2101.WTH C:\DSSAT48\Weather\                                                             
OUTPUT         OVERVIEW
*SIMULATION CONTROL 
                   1     1     S 2021001  2150 2006 SIMULATION          
                   Y     Y     Y     N     N     N     N     N     M
                   M     M     E     R     S     L     R     1     P     R     1     D     0
                   R     R     R     Y     M
                   N     Y     Y     1     Y     Y     Y     Y     N     N     Y     N     N
!AUTOMATIC MANAGEM  
                   -99     -99   40.  100.   30.   40.   10.
                 30.   50.  100. GS000 IR001  10.0 1.000
                 30.   50.   25. FE001 GS000
                100.     1   20.
                     0     -99  100.    0.
*EXP.DETAILS        
  1SWIF2101 LT RAINFED LENTIL AT SWIFT CURRENT WITH THREE SEEDING DATES    
*TREATMENTS         
  1 0 0 0 Eearly Maxim 2021        
*CULTIVARS          
   LT CAND04 CDC Maximim     
*FIELDS             
   SWCO0001 SWIF2101   0.0    0.   -99    0. 100.0    0S SIL    150. CASC900010-99.00 -99.0
   -107.3000030518   50.2799987793    90.000               1.0  100.   1.0   0.0 FH101   -99
*INITIAL CONDITIONS 
   WH    2021001   900     0  1.00  1.00 -99.0  4000  0.00  0.00   20.   15.
      5. 0.260  1.00  10.6
     15. 0.260  1.00  9.00
     30. 0.287 0.467  3.33
     45. 0.297 0.200  1.10
     60. 0.290 0.200  1.10
     90. 0.313 0.200  1.10
    120. 0.320 0.200  1.10
    150. 0.320 0.200  1.10
*PLANTING DETAILS   
   2021117     -99 150.0 150.0     S     R   25.  -99.   3.0  -99.  -99. -99.0 -99.0   0.0
*IRRIGATION         
   1.000    0.    0.    0. GS000 IR001   0.0
*FERTILIZERS        
   2021117 FE005 AP002    0.    4.    0.    0.    0.    0.   -99
*RESIDUES           
*CHEMICALS          
*TILLAGE            
*ENVIRONMENT        
*HARVEST            
*SOIL               
 CASC900010  OT OTH    A SIL    150.   OTH  O.DBC                                      
 OT OTH    A Canada       -0.009  -0.099 CH  OTH  O                                        
 -99    0.12   8.0  0.35   61.  1.00  1.00 IB001 IB001 IB001 -99  
    5.       0.120 0.269 0.497 1.000  2.53  1.11 1.720  23.0  49.0 -99.0  -9.0  7.00-99.00-99.00-99.00
   15.       0.120 0.269 0.489 1.000  2.38  1.19 1.665  23.0  49.0 -99.0  -9.0  7.00-99.00-99.00-99.00
   30.       0.127 0.290 0.443 0.648  1.67  1.29 1.563  25.7  43.7 -99.0  -9.0  7.00-99.00-99.00-99.00
   45.       0.135 0.299 0.424 0.472  1.39  1.34 1.540  27.0  41.0 -99.0  -9.0  7.00-99.00-99.00-99.00
   60.       0.142 0.298 0.424 0.472  1.39  1.43 1.540  27.0  41.0 -99.0  -9.0  7.00-99.00-99.00-99.00
   90.       0.154 0.317 0.418 0.431  1.31  1.54 1.530  28.7  36.7 -99.0  -9.0  7.00-99.00-99.00-99.00
  120.       0.158 0.326 0.400 0.245  1.10  1.58 1.403  32.0  28.0 -99.0  -9.0  7.00-99.00-99.00-99.00
  150.       0.158 0.326 0.398 0.192  1.08  1.58 1.350  32.0  28.0 -99.0  -9.0  7.00-99.00-99.00-99.00
                    
    5.-99.00 -99.0 -99.0 -99.0 -99.0 -99.0 -99.0 -99.0 -99.0 -99.0-99.00 -99.0 -99.0 -99.0 -99.0 -99.0  -99.  -99.
   15.-99.00 -99.0 -99.0 -99.0 -99.0 -99.0 -99.0 -99.0 -99.0 -99.0-99.00 -99.0 -99.0 -99.0 -99.0 -99.0  -99.  -99.
   30.-99.00 -99.0 -99.0 -99.0 -99.0 -99.0 -99.0 -99.0 -99.0 -99.0-99.00 -99.0 -99.0 -99.0 -99.0 -99.0  -99.  -99.
   45.-99.00 -99.0 -99.0 -99.0 -99.0 -99.0 -99.0 -99.0 -99.0 -99.0-99.00 -99.0 -99.0 -99.0 -99.0 -99.0  -99.  -99.
   60.-99.00 -99.0 -99.0 -99.0 -99.0 -99.0 -99.0 -99.0 -99.0 -99.0-99.00 -99.0 -99.0 -99.0 -99.0 -99.0  -99.  -99.
   90.-99.00 -99.0 -99.0 -99.0 -99.0 -99.0 -99.0 -99.0 -99.0 -99.0-99.00 -99.0 -99.0 -99.0 -99.0 -99.0  -99.  -99.
  120.-99.00 -99.0 -99.0 -99.0 -99.0 -99.0 -99.0 -99.0 -99.0 -99.0-99.00 -99.0 -99.0 -99.0 -99.0 -99.0  -99.  -99.
  150.-99.00 -99.0 -99.0 -99.0 -99.0 -99.0 -99.0 -99.0 -99.0 -99.0-99.00 -99.0 -99.0 -99.0 -99.0 -99.0  -99.  -99.
                    
    5.-99.00-99.00-99.00-99.00
   15.-99.00-99.00-99.00-99.00
   30.-99.00-99.00-99.00-99.00
   45.-99.00-99.00-99.00-99.00
   60.-99.00-99.00-99.00-99.00
   90.-99.00-99.00-99.00-99.00
  120.-99.00-99.00-99.00-99.00
  150.-99.00-99.00-99.00-99.00
*CULTIVAR           
CAND04 CDC Maximim      LAT001 15.80-0.110 26.50  7.50 10.00 21.00 20.00 1.000 220.0  70.0  1.00 0.044 20.00  1.30 14.00  69.0 0.286 0.020
