*MODEL INPUT FILE            B     1     1     1   999     0
*FILES              
MODEL          PTSUB048
FILEX          WAPA9202.PTX                                                                                 
FILEA          WAPA9202.PTA                                                                                 
FILET          WAPA9202.PTT                                                                                 
SPECIES        PTSUB048.SPE C:\DSSAT48\GENOTYPE\                                                            
ECOTYPE        PTSUB048.ECO C:\DSSAT48\GENOTYPE\                                                            
CULTIVAR       PTSUB048.CUL C:\DSSAT48\GENOTYPE\                                                            
PESTS          PTSUB048.PST C:\DSSAT48\PEST\                                                                
SOILS          WA.SOL       C:\DSSAT48\SOIL\                                                                
WEATHERW       WAPA9201.WTH C:\DSSAT48\Weather\                                                             
OUTPUT         OVERVIEW
*SIMULATION CONTROL 
                   1     1     S 1992061  2150 DEFAULT SIMULATION CONTR 
                   Y     Y     N     N     N     N     N     Y     M
                   M     M     E     R     S     C     R     1     G     R     2     D     0
                   R     R     R     R     R
                   N     Y     Y     1     Y     Y     Y     Y     N     N     Y     N     Y
!AUTOMATIC MANAGEM  
                   -99     -99   40.  100.   30.   40.   10.
                 30.  100.  100. IB001 IR004  10.0 1.000
                 30.   50.   25. FE001 GS000
                100.     1   20.
                     0     -99  100.    0.
*EXP.DETAILS        
  1WAPA9202 PT PATERSON, WASHINGTON - 1992                                 
*TREATMENTS         
  1 1 1 0 I1 T1 Russet Burbank     
*CULTIVARS          
   PT IB0003 Russet Burbank  
*FIELDS             
   WAPA0001 WAPA9201   0.0  -99.   -99  -99. 100.0   -99 S      -99. WAPA920016-99.00 -99.0
    -99.0000000000  -99.0000000000   -99.000               1.0  100.   1.0 -99.0   -99   -99
*INITIAL CONDITIONS 
   FA    1992061     0     0  1.00  1.00 -99.0     0  0.00  0.00  100.    0.
      5. 0.150 0.100  1.00
     15. 0.150 0.100  1.00
     30. 0.150 0.100  1.00
     45. 0.150 0.100  1.00
     60. 0.150 0.100  1.00
*PLANTING DETAILS   
   1992102     -99   4.6   4.6     S     R   86.  -99.  15.0 2576.  -99. -99.0 -99.0  10.0
*IRRIGATION         
   0.950   30.   50.  100. GS000 IR001  10.0
   1992120 IR004   6.1
   1992122 IR004   6.6
   1992125 IR004   5.8
   1992126 IR004   5.4
   1992127 IR004   6.2
   1992128 IR004   5.4
   1992129 IR004   6.0
   1992130 IR004   5.3
   1992133 IR004   6.5
   1992134 IR004   5.8
   1992139 IR004   4.1
   1992140 IR004   5.2
   1992141 IR004   4.4
   1992142 IR004   5.9
   1992143 IR004   5.9
   1992144 IR004   8.0
   1992145 IR004   6.1
   1992146 IR004   6.2
   1992147 IR004   4.9
   1992148 IR004   5.8
   1992149 IR004   5.7
   1992151 IR004   6.2
   1992152 IR004   5.3
   1992153 IR004  10.5
   1992154 IR004  10.6
   1992155 IR004   9.6
   1992156 IR004   9.4
   1992158 IR004  11.4
   1992159 IR004   9.5
   1992160 IR004   5.8
   1992161 IR004   4.8
   1992162 IR004   5.5
   1992163 IR004   6.1
   1992167 IR004   5.8
   1992168 IR004  10.4
   1992169 IR004   0.0
   1992171 IR004   7.1
   1992172 IR004   3.9
   1992173 IR004   0.0
   1992174 IR004   9.7
   1992175 IR004  10.5
   1992176 IR004   0.0
   1992177 IR004   7.8
   1992178 IR004   5.3
   1992180 IR004  10.5
   1992181 IR004   5.0
   1992182 IR004  10.6
   1992183 IR004  10.0
   1992184 IR004  10.4
   1992185 IR004   6.1
   1992186 IR004  10.7
   1992187 IR004  11.3
   1992188 IR004   5.9
   1992189 IR004   7.0
   1992190 IR004   6.3
   1992191 IR004   9.9
   1992192 IR004   5.8
   1992193 IR004   7.2
   1992194 IR004   8.6
   1992196 IR004   9.2
   1992197 IR004   6.0
   1992198 IR004   9.4
   1992199 IR004   6.0
   1992200 IR004  11.0
   1992201 IR004   5.8
   1992203 IR004  10.5
   1992209 IR004   5.7
   1992211 IR004   5.9
   1992212 IR004   5.4
   1992213 IR004   5.7
   1992216 IR004   9.1
   1992217 IR004   5.0
   1992219 IR004   6.5
   1992220 IR004   5.2
   1992226 IR004   6.4
*FERTILIZERS        
   1992101 FE005 AP002   15.  106.  -99.  -99.  -99.  -99.   -99
   1992138 FE005 AP005   15.   25.  -99.  -99.  -99.  -99.   -99
   1992145 FE005 AP005   15.   25.  -99.  -99.  -99.  -99.   -99
   1992152 FE005 AP005   15.   25.  -99.  -99.  -99.  -99.   -99
   1992159 FE005 AP005   15.   25.  -99.  -99.  -99.  -99.   -99
   1992166 FE005 AP005   15.   25.  -99.  -99.  -99.  -99.   -99
   1992173 FE005 AP005   15.   25.  -99.  -99.  -99.  -99.   -99
   1992180 FE005 AP005   15.   25.  -99.  -99.  -99.  -99.   -99
   1992187 FE005 AP005   15.   25.  -99.  -99.  -99.  -99.   -99
   1992194 FE005 AP005   15.   25.  -99.  -99.  -99.  -99.   -99
   1992201 FE005 AP005   15.   25.  -99.  -99.  -99.  -99.   -99
*RESIDUES           
*CHEMICALS          
*TILLAGE            
   1992100 TI033  15.0
   1992116 TI013  15.0
   1992118 TI026  15.0
*ENVIRONMENT        
*HARVEST            
   1992223 GS000   -99   -99  100.    0.
*SOIL               
 WAPA920016  -99         S      -99.   Quincy Sand                                     
 Paterson    USA          45.830-119.870 Fine sand                                         
 BN     0.13   6.2  0.80   64.  1.00  1.00 IB001 IB001 IB001 -99  
    5.       0.050 0.150 0.300 1.000  21.0  1.55 0.500 -99.0 -99.0 -99.0  -9.0  7.60-99.00-99.00-99.00
   15.       0.050 0.150 0.300 1.000  21.0  1.55 0.500 -99.0 -99.0 -99.0  -9.0  7.60-99.00-99.00-99.00
   30.       0.050 0.150 0.300 0.640  21.0  1.55 0.500 -99.0 -99.0 -99.0  -9.0  8.00-99.00-99.00-99.00
   45.       0.050 0.150 0.300 0.410  21.0  1.55 0.500 -99.0 -99.0 -99.0  -9.0  8.30-99.00-99.00-99.00
   60.       0.050 0.150 0.300 0.410  21.0  1.55 0.500 -99.0 -99.0 -99.0  -9.0  8.30-99.00-99.00-99.00
                    
    5.-99.00 -99.0 -99.0 -99.0 -99.0 -99.0 -99.0 -99.0 -99.0 -99.0-99.00 -99.0 -99.0 -99.0 -99.0 -99.0  -99.  -99.
   15.-99.00 -99.0 -99.0 -99.0 -99.0 -99.0 -99.0 -99.0 -99.0 -99.0-99.00 -99.0 -99.0 -99.0 -99.0 -99.0  -99.  -99.
   30.-99.00 -99.0 -99.0 -99.0 -99.0 -99.0 -99.0 -99.0 -99.0 -99.0-99.00 -99.0 -99.0 -99.0 -99.0 -99.0  -99.  -99.
   45.-99.00 -99.0 -99.0 -99.0 -99.0 -99.0 -99.0 -99.0 -99.0 -99.0-99.00 -99.0 -99.0 -99.0 -99.0 -99.0  -99.  -99.
   60.-99.00 -99.0 -99.0 -99.0 -99.0 -99.0 -99.0 -99.0 -99.0 -99.0-99.00 -99.0 -99.0 -99.0 -99.0 -99.0  -99.  -99.
                    
    5.-99.00-99.00-99.00-99.00
   15.-99.00-99.00-99.00-99.00
   30.-99.00-99.00-99.00-99.00
   45.-99.00-99.00-99.00-99.00
   60.-99.00-99.00-99.00-99.00
*CULTIVAR           
IB0003 Russet Burbank   IB0001  1522.  21.6   0.5   0.3  18.8
