*MODEL INPUT FILE            B     1     1     1   999     0
*FILES              
MODEL          CRGRO048
FILEX          USOT0801.CNX                                                                                 
FILEA          USOT0801.CNA                                                                                 
FILET          USOT0801.CNT                                                                                 
SPECIES        CNGRO048.SPE C:\DSSAT48\GENOTYPE\                                                            
ECOTYPE        CNGRO048.ECO C:\DSSAT48\GENOTYPE\                                                            
CULTIVAR       CNGRO048.CUL C:\DSSAT48\GENOTYPE\                                                            
PESTS          CNGRO048.PST C:\DSSAT48\PEST\                                                                
SOILS          US.SOL       C:\DSSAT48\SOIL\                                                                
WEATHERW       USOT0701.WTH C:\DSSAT48\Weather\                                                             
OUTPUT         OVERVIEW
*SIMULATION CONTROL 
                   1     1     S 2007317  2150 DEFAULT SIMULATION CONTR 
                   N     N     N     N     N     N     N     Y     M
                   M     M     E     R     S     L     R     1     G     R     2     D     0
                   R     R     R     N     M
                   N     Y     Y     1     Y     N     Y     Y     N     N     Y     N     N
!AUTOMATIC MANAGEM  
                   -99     -99   40.  100.   30.   40.   10.
                 30.   50.  100. GS000 IR001  10.0 1.000
                 30.   50.   25. FE001 GS000
                100.     1   20.
                     0     -99  100.    0.
*EXP.DETAILS        
  1USOT0801 CN RAPESEED OTTAVA,ITALY - N-N-N KABEL, HIGHER SR, DIFF TEMP   
*TREATMENTS         
  1 1 1 0 Ottava 2008              
*CULTIVARS          
   CN OT0001 KABEL (11)      
*FIELDS             
   USOT0001 USOT0701   0.0  -99.   -99  -99. 100.0   -99 CL      80. USOT070003-99.00 -99.0
    -99.0000000000  -99.0000000000   -99.000               1.0  100.   1.0 -99.0   -99   -99
*INITIAL CONDITIONS 
   WH    2007317   -99   -99  1.00  1.00 -99.0   -99 -9.00 -9.00  -99.  -99.
      5. 0.270   0.0   0.0
     15. 0.270   0.0   0.0
     30. 0.245   0.0   0.0
     45. 0.245   0.0   0.0
     60. 0.245   0.0   0.0
     90. 0.245   0.0   0.0
    120. 0.245   0.0   0.0
*PLANTING DETAILS   
   2007317 2007333  80.0  80.0     S     R   17.  -99.   2.0  -99.  -99. -99.0 -99.0 -99.0
*IRRIGATION         
   1.000    0.    0.    0. GS000 IR001   0.0
*FERTILIZERS        
   2007317 FE006 AP002   25.   36.   92.  -99.  -99.  -99.   -99
   2008020 FE019 AP002    7.   92.  -99.  -99.  -99.  -99.   -99
*RESIDUES           
*CHEMICALS          
*TILLAGE            
*ENVIRONMENT        
*HARVEST            
*SOIL               
 USOT070003  Dept. Labs  CL      80. Sandy clay loam (Ottava)                          
 Ottava      Italy        40.460   8.090 Typic Xerochrepts                                 
 G      0.13   6.0  0.25   73.  1.00  1.00 IB001 IB001 IB001 -99  
    5.       0.174 0.270 0.419 1.000 0.430  1.44 1.280  23.0  10.0   1.0 -99.0  8.30-99.00-99.00-99.00
   15.       0.174 0.270 0.419 1.000 0.430  1.44 1.280  23.0  10.0   1.0 -99.0  8.30-99.00-99.00-99.00
   30.       0.151 0.245 0.417 0.638  2.59  1.45 1.160  19.0  12.0   1.0 -99.0  8.40-99.00-99.00-99.00
   45.       0.151 0.245 0.417 0.500  2.59  1.45 1.160  19.0  12.0   1.0 -99.0  8.40-99.00-99.00-99.00
   60.       0.151 0.245 0.417 0.500  2.59  1.45 1.160  19.0  12.0   1.0 -99.0  8.40-99.00-99.00-99.00
   90.       0.151 0.245 0.417 0.250  2.59  1.45 1.160  19.0  12.0   1.0 -99.0  8.40-99.00-99.00-99.00
  120.       0.151 0.245 0.417 0.100  2.59  1.45 1.160  19.0  12.0   1.0 -99.0  8.40-99.00-99.00-99.00
                    
    5.-99.00 -99.0 -99.0 -99.0 -99.0 -99.0 -99.0 -99.0 -99.0 -99.0-99.00 -99.0 -99.0 -99.0 -99.0 -99.0  -99.  -99.
   15.-99.00 -99.0 -99.0 -99.0 -99.0 -99.0 -99.0 -99.0 -99.0 -99.0-99.00 -99.0 -99.0 -99.0 -99.0 -99.0  -99.  -99.
   30.-99.00 -99.0 -99.0 -99.0 -99.0 -99.0 -99.0 -99.0 -99.0 -99.0-99.00 -99.0 -99.0 -99.0 -99.0 -99.0  -99.  -99.
   45.-99.00 -99.0 -99.0 -99.0 -99.0 -99.0 -99.0 -99.0 -99.0 -99.0-99.00 -99.0 -99.0 -99.0 -99.0 -99.0  -99.  -99.
   60.-99.00 -99.0 -99.0 -99.0 -99.0 -99.0 -99.0 -99.0 -99.0 -99.0-99.00 -99.0 -99.0 -99.0 -99.0 -99.0  -99.  -99.
   90.-99.00 -99.0 -99.0 -99.0 -99.0 -99.0 -99.0 -99.0 -99.0 -99.0-99.00 -99.0 -99.0 -99.0 -99.0 -99.0  -99.  -99.
  120.-99.00 -99.0 -99.0 -99.0 -99.0 -99.0 -99.0 -99.0 -99.0 -99.0-99.00 -99.0 -99.0 -99.0 -99.0 -99.0  -99.  -99.
                    
    5.-99.00-99.00-99.00-99.00
   15.-99.00-99.00-99.00-99.00
   30.-99.00-99.00-99.00-99.00
   45.-99.00-99.00-99.00-99.00
   60.-99.00-99.00-99.00-99.00
   90.-99.00-99.00-99.00-99.00
  120.-99.00-99.00-99.00-99.00
*CULTIVAR           
OT0001 KABEL (11)       CN0001 16.00-0.006 45.00 12.50 18.50 33.50  1.00 1.000 235.0  95.0  1.00 0.003 21.00 18.00 10.00  81.0 0.230 0.480
