*MODEL INPUT FILE            B     1     1     1   999     0
*FILES              
MODEL          CRGRO048
FILEX          IUAM8801.SBX                                                                                 
FILEA          IUAM8801.SBA                                                                                 
FILET          IUAM8801.SBT                                                                                 
SPECIES        SBGRO048.SPE C:\DSSAT48\GENOTYPE\                                                            
ECOTYPE        SBGRO048.ECO C:\DSSAT48\GENOTYPE\                                                            
CULTIVAR       SBGRO048.CUL C:\DSSAT48\GENOTYPE\                                                            
PESTS          SBGRO048.PST C:\DSSAT48\PEST\                                                                
SOILS          SOIL.SOL     C:\DSSAT48\SOIL\                                                                
WEATHERW       IUAM8801.WTH C:\DSSAT48\Weather\                                                             
OUTPUT         OVERVIEW
*SIMULATION CONTROL 
                   1     1     S 1988132  2150                          
                   Y     Y     Y     N     N     N     N     Y     M
                   M     M     E     R     S     L     R     1     G     R     2     D     0
                   R     R     R     R     M
                   N     Y     Y     1     Y     Y     Y     Y     N     N     Y     N     N
!AUTOMATIC MANAGEM  
                   -99     -99   40.  100.   30.   40.   10.
                 30.   50.  100. IB001 IB001  10.0 1.000
                 30.   50.   25. IB001 IB001
                100.     1   20.
                     0     -99  100.    0.
*EXP.DETAILS        
  1IUAM8801 SB ASA 1988 STUDY, WILLIAMS-82 & ELGIN-87                      
*TREATMENTS         
  1 1 1 0 Wms-82 rainfed           
*CULTIVARS          
   SB IB0010 WILLIAMS-82 (3) 
*FIELDS             
   IUAM0001 IUAM8801   0.0    0. IB000    0. 100.0 00000 -99    202. IBSB910049-99.00 -99.0
    -99.0000000000  -99.0000000000   -99.000               1.0  100.   1.0 -99.0   -99   -99
*INITIAL CONDITIONS 
   SB    1988132   100     0  1.00  1.00 -99.0     0  0.00  0.00  100.    0.
      5. 0.283 0.900  1.50
     15. 0.283 0.900  1.50
     17. 0.283 0.900  1.50
     29. 0.330 0.900  1.50
     43. 0.340 0.900  1.50
     55. 0.340 0.900  1.50
     67. 0.340 0.800  1.00
     79. 0.330 0.600 0.500
     94. 0.320 0.600 0.500
    123. 0.300 0.600 0.500
    152. 0.300 0.600 0.500
    177. 0.300 0.600 0.500
    202. 0.300 0.600 0.500
*PLANTING DETAILS   
   1988132     -99  27.2  27.2     S     R   70.    0.   5.0  -99.  -99. -99.0 -99.0 -99.0
*IRRIGATION         
   1.000    0.    0.    0. GS000 IR001   0.0
*FERTILIZERS        
*RESIDUES           
   1988132 IB001  4000  0.53  0.00  0.00  100.   25.   -99
*CHEMICALS          
*TILLAGE            
*ENVIRONMENT        
*HARVEST            
*SOIL               
 IBSB910049  Nicollet mo -99    202.   NICOLLET CLAY LOAM                              
 -99         -99          -0.009  -0.099 NICOLLET CLAY LOAM (FINE-LOAMY,MIXED,MESIC AQUIC H
 -99    0.09  10.6  0.60   75.  1.00  1.00 IB001 IB001 IB001 -99  
    5.       0.153 0.283 0.340 1.000  -99.  1.37 -99.0 -99.0 -99.0 -99.0  -9.0  7.00-99.00-99.00-99.00
   15.       0.143 0.283 0.340 1.000  -99.  1.37 -99.0 -99.0 -99.0 -99.0  -9.0  7.00-99.00-99.00-99.00
   17.       0.143 0.283 0.340 1.000  -99.  1.37 -99.0 -99.0 -99.0 -99.0  -9.0  7.00-99.00-99.00-99.00
   29.       0.220 0.330 0.390 0.800  -99.  1.37 -99.0 -99.0 -99.0 -99.0  -9.0  7.00-99.00-99.00-99.00
   43.       0.205 0.340 0.400 0.800  -99.  1.37 -99.0 -99.0 -99.0 -99.0  -9.0  7.00-99.00-99.00-99.00
   55.       0.205 0.340 0.400 0.800  -99.  1.35 -99.0 -99.0 -99.0 -99.0  -9.0  7.00-99.00-99.00-99.00
   67.       0.205 0.340 0.400 0.700  -99.  1.35 -99.0 -99.0 -99.0 -99.0  -9.0  7.00-99.00-99.00-99.00
   79.       0.205 0.330 0.390 0.700  -99.  1.35 -99.0 -99.0 -99.0 -99.0  -9.0  7.00-99.00-99.00-99.00
   94.       0.190 0.320 0.380 0.600  -99.  1.35 -99.0 -99.0 -99.0 -99.0  -9.0  7.00-99.00-99.00-99.00
  123.       0.160 0.300 0.355 0.600  -99.  1.40 -99.0 -99.0 -99.0 -99.0  -9.0  7.00-99.00-99.00-99.00
  152.       0.140 0.300 0.355 0.500  -99.  1.40 -99.0 -99.0 -99.0 -99.0  -9.0  7.00-99.00-99.00-99.00
  177.       0.140 0.300 0.355 0.500  -99.  1.40 -99.0 -99.0 -99.0 -99.0  -9.0  7.00-99.00-99.00-99.00
  202.       0.140 0.300 0.355 0.500  -99.  1.40 -99.0 -99.0 -99.0 -99.0  -9.0  7.00-99.00-99.00-99.00
                    
    5.-99.00 -99.0 -99.0 -99.0 -99.0 -99.0 -99.0 -99.0 -99.0 -99.0-99.00 -99.0 -99.0 -99.0 -99.0 -99.0  -99.  -99.
   15.-99.00 -99.0 -99.0 -99.0 -99.0 -99.0 -99.0 -99.0 -99.0 -99.0-99.00 -99.0 -99.0 -99.0 -99.0 -99.0  -99.  -99.
   17.-99.00 -99.0 -99.0 -99.0 -99.0 -99.0 -99.0 -99.0 -99.0 -99.0-99.00 -99.0 -99.0 -99.0 -99.0 -99.0  -99.  -99.
   29.-99.00 -99.0 -99.0 -99.0 -99.0 -99.0 -99.0 -99.0 -99.0 -99.0-99.00 -99.0 -99.0 -99.0 -99.0 -99.0  -99.  -99.
   43.-99.00 -99.0 -99.0 -99.0 -99.0 -99.0 -99.0 -99.0 -99.0 -99.0-99.00 -99.0 -99.0 -99.0 -99.0 -99.0  -99.  -99.
   55.-99.00 -99.0 -99.0 -99.0 -99.0 -99.0 -99.0 -99.0 -99.0 -99.0-99.00 -99.0 -99.0 -99.0 -99.0 -99.0  -99.  -99.
   67.-99.00 -99.0 -99.0 -99.0 -99.0 -99.0 -99.0 -99.0 -99.0 -99.0-99.00 -99.0 -99.0 -99.0 -99.0 -99.0  -99.  -99.
   79.-99.00 -99.0 -99.0 -99.0 -99.0 -99.0 -99.0 -99.0 -99.0 -99.0-99.00 -99.0 -99.0 -99.0 -99.0 -99.0  -99.  -99.
   94.-99.00 -99.0 -99.0 -99.0 -99.0 -99.0 -99.0 -99.0 -99.0 -99.0-99.00 -99.0 -99.0 -99.0 -99.0 -99.0  -99.  -99.
  123.-99.00 -99.0 -99.0 -99.0 -99.0 -99.0 -99.0 -99.0 -99.0 -99.0-99.00 -99.0 -99.0 -99.0 -99.0 -99.0  -99.  -99.
  152.-99.00 -99.0 -99.0 -99.0 -99.0 -99.0 -99.0 -99.0 -99.0 -99.0-99.00 -99.0 -99.0 -99.0 -99.0 -99.0  -99.  -99.
  177.-99.00 -99.0 -99.0 -99.0 -99.0 -99.0 -99.0 -99.0 -99.0 -99.0-99.00 -99.0 -99.0 -99.0 -99.0 -99.0  -99.  -99.
  202.-99.00 -99.0 -99.0 -99.0 -99.0 -99.0 -99.0 -99.0 -99.0 -99.0-99.00 -99.0 -99.0 -99.0 -99.0 -99.0  -99.  -99.
                    
    5.-99.00-99.00-99.00-99.00
   15.-99.00-99.00-99.00-99.00
   17.-99.00-99.00-99.00-99.00
   29.-99.00-99.00-99.00-99.00
   43.-99.00-99.00-99.00-99.00
   55.-99.00-99.00-99.00-99.00
   67.-99.00-99.00-99.00-99.00
   79.-99.00-99.00-99.00-99.00
   94.-99.00-99.00-99.00-99.00
  123.-99.00-99.00-99.00-99.00
  152.-99.00-99.00-99.00-99.00
  177.-99.00-99.00-99.00-99.00
  202.-99.00-99.00-99.00-99.00
*CULTIVAR           
IB0010 WILLIAMS-82 (3)  SB0301 13.40 0.285 19.00  8.30 14.20 32.20 28.00 0.970 385.0 180.0  1.00 0.180 26.00  2.40 12.00  77.0 0.405 0.205
