*MODEL INPUT FILE            B     1     1     1   999     0
*FILES              
MODEL          BSCER048
FILEX          BU019801.BSX                                                                                 
FILEA          BU019801.BSA                                                                                 
FILET          BU019801.BST                                                                                 
SPECIES        BSCER048.SPE C:\DSSAT48\GENOTYPE\                                                            
ECOTYPE        BSCER048.ECO C:\DSSAT48\GENOTYPE\                                                            
CULTIVAR       BSCER048.CUL C:\DSSAT48\GENOTYPE\                                                            
PESTS          BSCER048.PST C:\DSSAT48\PEST\                                                                
SOILS          SOIL.SOL     C:\DSSAT48\SOIL\                                                                
WEATHERW       BUCH9801.WTH C:\DSSAT48\Weather\                                                             
OUTPUT         OVERVIEW
*SIMULATION CONTROL 
                   1     1     S 1998094  2150 DEFAULT SIMULATION CONTR 
                   Y     Y     N     N     N     N     N     Y     M
                   M     M     E     R     S     C     R     1     G     R     2     D     0
                   R     R     R     R     M
                   N     Y     Y     1     Y     Y     Y     Y     Y     N     Y     N     Y
!AUTOMATIC MANAGEM  
                   -99     -99   40.  100.   30.   40.   10.
                 30.   50.  100. GS000 IR001  10.0 1.000
                 30.   50.   25. FE001 GS000
                100.     1   20.
                     0     -99  100.    0.
*EXP.DETAILS        
  1BU019801 BS BUCHAREST, ROMANIA 1998                                     
*TREATMENTS         
  1 1 1 0 Bucharest 1998           
*CULTIVARS          
   BS BU0003 Emma            
*FIELDS             
   BUCH0001 BUCH9801   0.0  -99.   -99  -99. 100.0   -99 SIC    -99. IB00000001-99.00 -99.0
    -99.0000000000  -99.0000000000   -99.000               1.0  100.   1.0 -99.0   -99   -99
*INITIAL CONDITIONS 
               0     0     0  1.00  1.00 -99.0     0  0.00  0.00  100.    0.
      5. 0.385   0.0   0.0
     15. 0.385   0.0   0.0
     30. 0.406   0.0   0.0
     45. 0.406   0.0   0.0
     60. 0.406   0.0   0.0
     90. 0.456   0.0   0.0
    120. 0.341   0.0   0.0
    150. 0.365   0.0   0.0
    180. 0.361   0.0   0.0
    210. 0.361   0.0   0.0
*PLANTING DETAILS   
   1998094     -99  10.2  10.0     S     9   50.  -99.   3.0  -99.  -99. -99.0 -99.0 -99.0
*IRRIGATION         
   1.000    0.    0.    0. GS000 IR001   0.0
*FERTILIZERS        
*RESIDUES           
*CHEMICALS          
*TILLAGE            
*ENVIRONMENT        
*HARVEST            
*SOIL               
 IB00000001  IBSNAT      SIC    -99.   DEFAULT - DEEP SILTY CLAY                       
 Generic     Generic      -0.009  -0.099 Generic                                           
 -99    0.11   6.0  0.30   85.  1.00  1.00 IB001 IB001 IB001 -99  
    5.       0.228 0.385 0.481 1.000  -99.  1.30 1.750  50.0  45.0   0.0 0.170  6.50-99.00-99.00-99.00
   15.       0.228 0.385 0.481 1.000  -99.  1.30 1.750  50.0  45.0   0.0 0.170  6.50-99.00-99.00-99.00
   30.       0.249 0.406 0.482 0.638  -99.  1.30 1.600  50.0  45.0   0.0 0.170  6.50-99.00-99.00-99.00
   45.       0.249 0.406 0.465 0.472  -99.  1.35 1.450  50.0  45.0   0.0 0.140  6.50-99.00-99.00-99.00
   60.       0.249 0.406 0.465 0.350  -99.  1.35 1.450  50.0  45.0   0.0 0.140  6.50-99.00-99.00-99.00
   90.       0.308 0.456 0.468 0.223  -99.  1.35 1.100  50.0  45.0   0.0 0.110  6.50-99.00-99.00-99.00
  120.       0.207 0.341 0.452 0.122  -99.  1.40 0.650  50.0  45.0   0.0 0.060  6.50-99.00-99.00-99.00
  150.       0.243 0.365 0.455 0.067  -99.  1.40 0.300  50.0  45.0   0.0 0.030  6.50-99.00-99.00-99.00
  180.       0.259 0.361 0.457 0.037  -99.  1.40 0.100  50.0  45.0   0.0 0.010  6.50-99.00-99.00-99.00
  210.       0.259 0.361 0.457 0.020  -99.  1.40 0.010  50.0  45.0   0.0   0.0  6.50-99.00-99.00-99.00
                    
    5.-99.00 -99.0 -99.0 -99.0 -99.0 -99.0 -99.0 -99.0 -99.0 -99.0-99.00 -99.0 -99.0 -99.0 -99.0 -99.0  -99.  -99.
   15.-99.00 -99.0 -99.0 -99.0 -99.0 -99.0 -99.0 -99.0 -99.0 -99.0-99.00 -99.0 -99.0 -99.0 -99.0 -99.0  -99.  -99.
   30.-99.00 -99.0 -99.0 -99.0 -99.0 -99.0 -99.0 -99.0 -99.0 -99.0-99.00 -99.0 -99.0 -99.0 -99.0 -99.0  -99.  -99.
   45.-99.00 -99.0 -99.0 -99.0 -99.0 -99.0 -99.0 -99.0 -99.0 -99.0-99.00 -99.0 -99.0 -99.0 -99.0 -99.0  -99.  -99.
   60.-99.00 -99.0 -99.0 -99.0 -99.0 -99.0 -99.0 -99.0 -99.0 -99.0-99.00 -99.0 -99.0 -99.0 -99.0 -99.0  -99.  -99.
   90.-99.00 -99.0 -99.0 -99.0 -99.0 -99.0 -99.0 -99.0 -99.0 -99.0-99.00 -99.0 -99.0 -99.0 -99.0 -99.0  -99.  -99.
  120.-99.00 -99.0 -99.0 -99.0 -99.0 -99.0 -99.0 -99.0 -99.0 -99.0-99.00 -99.0 -99.0 -99.0 -99.0 -99.0  -99.  -99.
  150.-99.00 -99.0 -99.0 -99.0 -99.0 -99.0 -99.0 -99.0 -99.0 -99.0-99.00 -99.0 -99.0 -99.0 -99.0 -99.0  -99.  -99.
  180.-99.00 -99.0 -99.0 -99.0 -99.0 -99.0 -99.0 -99.0 -99.0 -99.0-99.00 -99.0 -99.0 -99.0 -99.0 -99.0  -99.  -99.
  210.-99.00 -99.0 -99.0 -99.0 -99.0 -99.0 -99.0 -99.0 -99.0 -99.0-99.00 -99.0 -99.0 -99.0 -99.0 -99.0  -99.  -99.
                    
    5.-99.00-99.00-99.00-99.00
   15.-99.00-99.00-99.00-99.00
   30.-99.00-99.00-99.00-99.00
   45.-99.00-99.00-99.00-99.00
   60.-99.00-99.00-99.00-99.00
   90.-99.00-99.00-99.00-99.00
  120.-99.00-99.00-99.00-99.00
  150.-99.00-99.00-99.00-99.00
  180.-99.00-99.00-99.00-99.00
  210.-99.00-99.00-99.00-99.00
*CULTIVAR           
BU0003 Emma             IB0002  969.0 0.000 730.0 160.0 25.20 43.40  0.00  0.00  0.00
