*MODEL INPUT FILE            B     1     1     1   999     0
*FILES              
MODEL          CRGRO048
FILEX          CBAN8401.BRX                                                                                 
FILEA          CBAN8401.BRA                                                                                 
FILET          CBAN8401.BRT                                                                                 
SPECIES        BRGRO048.SPE C:\DSSAT48\GENOTYPE\                                                            
ECOTYPE        BRGRO048.ECO C:\DSSAT48\GENOTYPE\                                                            
CULTIVAR       BRGRO048.CUL C:\DSSAT48\GENOTYPE\                                                            
PESTS          BRGRO048.PST C:\DSSAT48\PEST\                                                                
SOILS          SOIL.SOL     C:\DSSAT48\SOIL\                                                                
WEATHERW       CBAN8401.WTH C:\DSSAT48\Weather\                                                             
OUTPUT         OVERVIEW
*SIMULATION CONTROL 
                   1     1     S 1984107  2150 BRACH : C4GRASS 3 YR     
                   Y     Y     N     N     N     Y     N     Y     M
                   M     M     E     R     S     C     R     1     P     R     2     D     0
                   R     R     R     N     R
                   N     Y     Y     1     Y     Y     Y     Y     N     Y     Y     N     N
!AUTOMATIC MANAGEM  
                   -99     -99   40.  100.   30.   40.   10.
                 30.   50.  100. GS000 IR001  10.0 0.000
                 30.   50.   25. FE001 GS000
                100.     1   20.
                     0     -99  100.    0.
*EXP.DETAILS        
  1CBAN8401 BR BRACHIARIA ON EL NUS                                        
*TREATMENTS         
  1 0 0 0 84 Treatment 1           
*CULTIVARS          
   BR CC0001 Brachiaria 1    
*FIELDS             
   CBAN0001 CBAN8401   0.0    0. DR000    0. 100.0     0 SCL    120. CBAN840001-99.00 -99.0
      0.0000000000    0.0000000000   835.000               1.0  100.   1.0   0.0   -99   -99
*INITIAL CONDITIONS 
   SB    1984107     0     0  1.00  1.00 -99.0     0  0.00  0.00  100.   15.
      5. 0.300 0.500  10.3
     15. 0.300 0.500  9.25
     20. 0.300 0.500  7.40
     25. 0.290 0.500  4.40
     30. 0.290 0.500  3.00
     35. 0.290 0.500  2.20
     40. 0.290 0.500  2.20
     55. 0.290 0.500  1.40
     70. 0.290 0.500  1.40
     95. 0.290 0.500 0.700
    120. 0.290 0.500 0.700
*PLANTING DETAILS   
   1984115 1984123 100.0 100.0     S     R   10.    0.   1.0    3.  -99. -99.0 -99.0   0.0
*IRRIGATION         
   1.000    0.    0.    0. GS000 IR001   0.0
*FERTILIZERS        
   1984176 FE005 AP002    0.   50.    0.    0.    0.    0.   -99
   1984206 FE005 AP002    0.   50.    0.    0.    0.    0.   -99
*RESIDUES           
*CHEMICALS          
*TILLAGE            
*ENVIRONMENT        
*HARVEST            
   1986085 GS000     C   -99  100.    0.
*SOIL               
 CBAN840001  XXXX   SACL SCL    120.   Sandy-Clay Loam EL NUS: CENICAFE/CORPOICA       
 EL NUS COLO MBIA          6.400   0.003 Inceptisols.                                      
 -99    0.13  11.5  0.65   75.  1.00  1.00 -99   -99   -99   -99  
    5.       0.190 0.330 0.430 0.950 0.680  1.36 1.400  31.0  23.0 -99.0 0.140  4.80-99.00  7.50-99.00
   15.       0.190 0.335 0.430 0.820 0.680  1.36 1.205  31.0  23.0 -99.0 0.140  4.80-99.00  7.50-99.00
   20.       0.190 0.320 0.430 0.700 0.680  1.38 1.030  31.0  23.0 -99.0 0.140  4.80-99.00  7.50-99.00
   25.       0.190 0.320 0.430 0.630 0.680  1.40 0.930  31.0  16.0 -99.0 0.060  5.30-99.00  5.80-99.00
   30.       0.190 0.310 0.430 0.580 0.660  1.41 0.850  31.0  16.0 -99.0 0.060  5.30-99.00  5.80-99.00
   35.       0.190 0.330 0.430 0.520 0.520  1.42 0.760  31.0  16.0 -99.0 0.060  5.30-99.00  5.80-99.00
   40.       0.190 0.330 0.430 0.470 0.520  1.43 0.700  31.0  16.0 -99.0 0.060  5.30-99.00  5.80-99.00
   55.       0.190 0.320 0.400 0.330 0.520  1.44 0.500  31.0  16.0 -99.0 0.160  5.30-99.00  5.80-99.00
   70.       0.190 0.320 0.400 0.330 0.520  1.44 0.500  31.0  16.0 -99.0 0.160  5.30-99.00  5.80-99.00
   95.       0.190 0.320 0.400 0.150 0.520  1.48 0.220  31.0  16.0 -99.0 0.100  5.30-99.00  5.80-99.00
  120.       0.190 0.320 0.400 0.150 0.520  1.48 0.220  31.0  16.0 -99.0 0.100  5.30-99.00  5.80-99.00
                    
    5.-99.00 -99.0 -99.0 -99.0 -99.0 -99.0 -99.0 -99.0 -99.0 -99.0-99.00 -99.0 -99.0 -99.0 -99.0 -99.0  -99.  -99.
   15.-99.00 -99.0 -99.0 -99.0 -99.0 -99.0 -99.0 -99.0 -99.0 -99.0-99.00 -99.0 -99.0 -99.0 -99.0 -99.0  -99.  -99.
   20.-99.00 -99.0 -99.0 -99.0 -99.0 -99.0 -99.0 -99.0 -99.0 -99.0-99.00 -99.0 -99.0 -99.0 -99.0 -99.0  -99.  -99.
   25.-99.00 -99.0 -99.0 -99.0 -99.0 -99.0 -99.0 -99.0 -99.0 -99.0-99.00 -99.0 -99.0 -99.0 -99.0 -99.0  -99.  -99.
   30.-99.00 -99.0 -99.0 -99.0 -99.0 -99.0 -99.0 -99.0 -99.0 -99.0-99.00 -99.0 -99.0 -99.0 -99.0 -99.0  -99.  -99.
   35.-99.00 -99.0 -99.0 -99.0 -99.0 -99.0 -99.0 -99.0 -99.0 -99.0-99.00 -99.0 -99.0 -99.0 -99.0 -99.0  -99.  -99.
   40.-99.00 -99.0 -99.0 -99.0 -99.0 -99.0 -99.0 -99.0 -99.0 -99.0-99.00 -99.0 -99.0 -99.0 -99.0 -99.0  -99.  -99.
   55.-99.00 -99.0 -99.0 -99.0 -99.0 -99.0 -99.0 -99.0 -99.0 -99.0-99.00 -99.0 -99.0 -99.0 -99.0 -99.0  -99.  -99.
   70.-99.00 -99.0 -99.0 -99.0 -99.0 -99.0 -99.0 -99.0 -99.0 -99.0-99.00 -99.0 -99.0 -99.0 -99.0 -99.0  -99.  -99.
   95.-99.00 -99.0 -99.0 -99.0 -99.0 -99.0 -99.0 -99.0 -99.0 -99.0-99.00 -99.0 -99.0 -99.0 -99.0 -99.0  -99.  -99.
  120.-99.00 -99.0 -99.0 -99.0 -99.0 -99.0 -99.0 -99.0 -99.0 -99.0-99.00 -99.0 -99.0 -99.0 -99.0 -99.0  -99.  -99.
                    
    5.-99.00-99.00-99.00-99.00
   15.-99.00-99.00-99.00-99.00
   20.-99.00-99.00-99.00-99.00
   25.-99.00-99.00-99.00-99.00
   30.-99.00-99.00-99.00-99.00
   35.-99.00-99.00-99.00-99.00
   40.-99.00-99.00-99.00-99.00
   55.-99.00-99.00-99.00-99.00
   70.-99.00-99.00-99.00-99.00
   95.-99.00-99.00-99.00-99.00
  120.-99.00-99.00-99.00-99.00
*CULTIVAR           
CC0001 Brachiaria 1     BR0001 12.00 0.200 99.00 10.00 18.00 33.00 25.00 2.200 225.0   2.0  0.01 0.002 18.00  2.05 20.00  78.0 0.398 0.500
