*MODEL INPUT FILE            B     1     1     1   999     0
*FILES              
MODEL          CRGRO048
FILEX          SWIF0002.LTX                                                                                 
FILEA          SWIF0002.LTA                                                                                 
FILET          SWIF0002.LTT                                                                                 
SPECIES        LTGRO048.SPE C:\DSSAT48\GENOTYPE\                                                            
ECOTYPE        LTGRO048.ECO C:\DSSAT48\GENOTYPE\                                                            
CULTIVAR       LTGRO048.CUL C:\DSSAT48\GENOTYPE\                                                            
PESTS          LTGRO048.PST C:\DSSAT48\PEST\                                                                
SOILS          CA.SOL       C:\DSSAT48\SOIL\                                                                
WEATHERW       SWIF6752.WTH C:\DSSAT48\Weather\                                                             
OUTPUT         OVERVIEW
*SIMULATION CONTROL 
                   1     1     S 2000100  2150 2000 SIMULATION          
                   Y     Y     Y     N     N     N     N     N     M
                   M     M     E     R     S     L     R     1     P     R     1     D     0
                   R     R     R     N     M
                   N     Y     Y     1     Y     Y     Y     Y     N     N     Y     N     N
!AUTOMATIC MANAGEM  
                   -99     -99   40.  100.   30.   40.   10.
                 30.   50.  100. GS000 IR001  10.0 1.000
                 30.   50.   25. FE001 GS000
                100.     1   20.
                     0     -99  100.    0.
*EXP.DETAILS        
  1SWIF0002 LT RAINFED AND IRRIGATED LENTIL AT SWIFT CURRENT               
*TREATMENTS         
  1 0 0 0 Swif Curr 2000           
*CULTIVARS          
   LT CAND02 CDC Glamis      
*FIELDS             
   SWCO0001 SWIF6752   0.0    0.   -99    0. 100.0    0S SIL    150. CASC900051-99.00 -99.0
   -107.3000030518   50.2799987793   817.000               1.0  100.   1.0   0.0 FH101   -99
*INITIAL CONDITIONS 
   WH    2000001   900     0  1.00  1.00 -99.0   900  1.00  0.00   20.   15.
      5. 0.170  1.00  10.6
     15. 0.170  1.00  9.00
     30. 0.170 0.467  3.33
     45. 0.183 0.200  1.10
     60. 0.197 0.200  1.10
     90. 0.213 0.200  1.10
    120. 0.220 0.200  1.10
    150. 0.220 0.200  1.10
    180. 0.260 0.010 0.010
*PLANTING DETAILS   
   2000124     -99 120.0 120.0     S     R   40.  -99.   3.0  -99.  -99. -99.0 -99.0   0.0
*IRRIGATION         
   1.000    0.    0.    0. GS000 IR001   0.0
*FERTILIZERS        
*RESIDUES           
*CHEMICALS          
*TILLAGE            
*ENVIRONMENT        
*HARVEST            
*SOIL               
 CASC900051  OT OTH    A SIL    150.   OTH  O.DBC                                      
 OT OTH    A Canada       -0.009  -0.099 CH  OTH  O                                        
 -99    0.12   8.0  0.35   61.  1.00  1.00 IB001 IB001 IB001 -99  
    5.       0.120 0.240 0.497 1.000  2.53  1.22 1.740  23.0  49.0 -99.0  -9.0  7.00-99.00-99.00-99.00
   15.       0.120 0.240 0.497 1.000  2.53  1.22 1.740  23.0  49.0 -99.0  -9.0  7.00-99.00-99.00-99.00
   30.       0.120 0.240 0.486 0.867  2.33  1.27 1.653  23.0  49.7 -99.0  -9.0  7.00-99.00-99.00-99.00
   45.       0.120 0.237 0.461 0.667  1.95  1.33 1.587  24.3  47.0 -99.0  -9.0  7.00-99.00-99.00-99.00
   60.       0.120 0.230 0.424 0.400  1.39  1.40 1.540  27.0  41.0 -99.0  -9.0  7.00-99.00-99.00-99.00
   90.       0.122 0.260 0.403 0.143  1.13  1.64 1.457  32.0  28.0 -99.0  -9.0  7.00-99.00-99.00-99.00
  120.       0.125 0.260 0.398 0.030  1.08  1.76 1.350  32.0  28.0 -99.0  -9.0  7.00-99.00-99.00-99.00
  150.       0.125 0.260 0.398 0.010  1.08  1.76 1.350  32.0  28.0 -99.0  -9.0  7.00-99.00-99.00-99.00
  180.       0.125 0.260 0.398 0.010  1.08  1.76 1.350  32.0  28.0 -99.0  -9.0  7.00-99.00-99.00-99.00
                    
    5.-99.00 -99.0 -99.0 -99.0 -99.0 -99.0 -99.0 -99.0 -99.0 -99.0-99.00 -99.0 -99.0 -99.0 -99.0 -99.0  -99.  -99.
   15.-99.00 -99.0 -99.0 -99.0 -99.0 -99.0 -99.0 -99.0 -99.0 -99.0-99.00 -99.0 -99.0 -99.0 -99.0 -99.0  -99.  -99.
   30.-99.00 -99.0 -99.0 -99.0 -99.0 -99.0 -99.0 -99.0 -99.0 -99.0-99.00 -99.0 -99.0 -99.0 -99.0 -99.0  -99.  -99.
   45.-99.00 -99.0 -99.0 -99.0 -99.0 -99.0 -99.0 -99.0 -99.0 -99.0-99.00 -99.0 -99.0 -99.0 -99.0 -99.0  -99.  -99.
   60.-99.00 -99.0 -99.0 -99.0 -99.0 -99.0 -99.0 -99.0 -99.0 -99.0-99.00 -99.0 -99.0 -99.0 -99.0 -99.0  -99.  -99.
   90.-99.00 -99.0 -99.0 -99.0 -99.0 -99.0 -99.0 -99.0 -99.0 -99.0-99.00 -99.0 -99.0 -99.0 -99.0 -99.0  -99.  -99.
  120.-99.00 -99.0 -99.0 -99.0 -99.0 -99.0 -99.0 -99.0 -99.0 -99.0-99.00 -99.0 -99.0 -99.0 -99.0 -99.0  -99.  -99.
  150.-99.00 -99.0 -99.0 -99.0 -99.0 -99.0 -99.0 -99.0 -99.0 -99.0-99.00 -99.0 -99.0 -99.0 -99.0 -99.0  -99.  -99.
  180.-99.00 -99.0 -99.0 -99.0 -99.0 -99.0 -99.0 -99.0 -99.0 -99.0-99.00 -99.0 -99.0 -99.0 -99.0 -99.0  -99.  -99.
                    
    5.-99.00-99.00-99.00-99.00
   15.-99.00-99.00-99.00-99.00
   30.-99.00-99.00-99.00-99.00
   45.-99.00-99.00-99.00-99.00
   60.-99.00-99.00-99.00-99.00
   90.-99.00-99.00-99.00-99.00
  120.-99.00-99.00-99.00-99.00
  150.-99.00-99.00-99.00-99.00
  180.-99.00-99.00-99.00-99.00
*CULTIVAR           
CAND02 CDC Glamis       LAT001 15.40-0.110 28.00  5.00  8.00 22.50 16.00 0.860 240.0  70.0  1.00 0.065 20.00  2.00 14.00  67.0 0.286 0.020
