*MODEL INPUT FILE            B     1     1     1   999     0
*FILES              
MODEL          PRFRM048
FILEX          ONCF1401.ALX                                                                                 
FILEA          ONCF1401.ALA                                                                                 
FILET          ONCF1401.ALT                                                                                 
SPECIES        ALFRM048.SPE C:\DSSAT48\GENOTYPE\                                                            
ECOTYPE        ALFRM048.ECO C:\DSSAT48\GENOTYPE\                                                            
CULTIVAR       ALFRM048.CUL C:\DSSAT48\GENOTYPE\                                                            
PESTS          ALFRM048.PST C:\DSSAT48\PEST\                                                                
SOILS          CA.SOL       C:\DSSAT48\SOIL\                                                                
WEATHERW       OTWA1304.WTH C:\DSSAT48\Weather\                                                             
OUTPUT         OVERVIEW
*SIMULATION CONTROL 
                   1     1     P 2014126  2150 Obs Harvest Dates        
                   Y     Y     Y     N     N     N     N     N     M
                   M     M     E     F     S     L     R     1     P     R     2     D     0
                   R     R     R     R     R
                   N     Y     Y     1     Y     Y     Y     Y     Y     Y     Y     Y     N
!AUTOMATIC MANAGEM  
                   -99     -99    0.    0.    0.    0.    0.
                 30.   50.  100. GS000 IR004   0.0 0.000
                  0.    0.    0. FE001 GS000
                  0.     0    0.
                     0     -99    0.    0.
*EXP.DETAILS        
  1ONCF1401 AL CFIA Obs & Auto-Mow OTTAWA                                  
*TREATMENTS         
  1 1 1 0 CFIA-Alfalfa             
*CULTIVARS          
   AL CA0001 CFIA-alfalfa FD4
*FIELDS             
   AGZA1501 OTWA1304   0.0  -99.   -99  -99. 100.0   -99 CL     -99. CAON080010-99.00 -99.0
     42.0000000000    0.0000000000   222.000               1.0  100.   1.0 -99.0   -99   -99
*INITIAL CONDITIONS 
   SB    2014090     0     0  1.00  1.00 -99.0     0  0.00  0.00  100.   15.
      5. 0.290 0.200  4.00
     15. 0.290 0.200  4.00
     30. 0.290 0.200  4.00
     45. 0.230 0.200  4.00
     60. 0.230 0.200  4.00
     80. 0.230 0.200  2.00
    100. 0.230 0.200  2.00
*PLANTING DETAILS   
   2014126     -99 400.0 400.0     S     R   10.    0.   2.0   20.  -99. -99.0   1.0   0.0
*IRRIGATION         
   1.000    0.    0.    0. GS000 IR001   0.0
*FERTILIZERS        
*RESIDUES           
*CHEMICALS          
*TILLAGE            
*ENVIRONMENT        
*HARVEST            
   2016330 GS000     C     A  100.    0.
*SOIL               
 CAON080010  ON OTA      CL     -99.  CFIA-16                                          
 ONOttawa05A Canada       -0.009  -0.099 GL  ON    O                                       
 -99    0.13  10.0  0.40   74.  1.00  1.00 IB001 IB001 IB001 -99  
    5.       0.130 0.290 0.470 1.000 0.230  1.40 3.100  37.3  49.0   0.0  -9.0  7.00  6.20-99.00-99.00
   15.       0.130 0.290 0.470 1.000 0.230  1.40 3.100  37.3  49.0   0.0  -9.0  7.00  6.20-99.00-99.00
   30.       0.130 0.290 0.470 1.000 0.230  1.40 3.100  37.3  49.0   0.0  -9.0  7.00  6.20-99.00-99.00
   45.       0.110 0.260 0.480 0.407  10.0  1.30 2.400  31.4  36.6   0.0  -9.0  7.00  6.20-99.00-99.00
   60.       0.110 0.260 0.480 0.407  10.0  1.30 2.400  31.4  36.6   0.0  -9.0  7.00  6.20-99.00-99.00
   80.       0.110 0.230 0.480 0.202  10.0  1.30 0.200  31.4  36.6   0.0  -9.0  7.00  6.20-99.00-99.00
  100.       0.110 0.230 0.480 0.202  10.0  1.30 0.200  31.4  36.6   0.0  -9.0  7.00  6.20-99.00-99.00
                    
    5.-99.00 -99.0 -99.0 -99.0 -99.0 -99.0 -99.0 -99.0 -99.0 -99.0-99.00 -99.0 -99.0 -99.0 -99.0 -99.0  -99.  -99.
   15.-99.00 -99.0 -99.0 -99.0 -99.0 -99.0 -99.0 -99.0 -99.0 -99.0-99.00 -99.0 -99.0 -99.0 -99.0 -99.0  -99.  -99.
   30.-99.00 -99.0 -99.0 -99.0 -99.0 -99.0 -99.0 -99.0 -99.0 -99.0-99.00 -99.0 -99.0 -99.0 -99.0 -99.0  -99.  -99.
   45.-99.00 -99.0 -99.0 -99.0 -99.0 -99.0 -99.0 -99.0 -99.0 -99.0-99.00 -99.0 -99.0 -99.0 -99.0 -99.0  -99.  -99.
   60.-99.00 -99.0 -99.0 -99.0 -99.0 -99.0 -99.0 -99.0 -99.0 -99.0-99.00 -99.0 -99.0 -99.0 -99.0 -99.0  -99.  -99.
   80.-99.00 -99.0 -99.0 -99.0 -99.0 -99.0 -99.0 -99.0 -99.0 -99.0-99.00 -99.0 -99.0 -99.0 -99.0 -99.0  -99.  -99.
  100.-99.00 -99.0 -99.0 -99.0 -99.0 -99.0 -99.0 -99.0 -99.0 -99.0-99.00 -99.0 -99.0 -99.0 -99.0 -99.0  -99.  -99.
                    
    5.-99.00-99.00-99.00-99.00
   15.-99.00-99.00-99.00-99.00
   30.-99.00-99.00-99.00-99.00
   45.-99.00-99.00-99.00-99.00
   60.-99.00-99.00-99.00-99.00
   80.-99.00-99.00-99.00-99.00
  100.-99.00-99.00-99.00-99.00
*CULTIVAR           
CA0001 CFIA-alfalfa FD4 C00001 12.50 0.200 99.00 10.00 18.00 33.00 25.00 1.340 240.0   2.0  0.01 0.020 15.00  2.05 20.00  78.0 0.115 0.035
