*MODEL INPUT FILE            B     1     1     1   999     0
*FILES              
MODEL          CRGRO048
FILEX          NMCL1301.SFX                                                                                 
FILEA          NMCL1301.SFA                                                                                 
FILET          NMCL1301.SFT                                                                                 
SPECIES        SFGRO048.SPE C:\DSSAT48\GENOTYPE\                                                            
ECOTYPE        SFGRO048.ECO C:\DSSAT48\GENOTYPE\                                                            
CULTIVAR       SFGRO048.CUL C:\DSSAT48\GENOTYPE\                                                            
PESTS          SFGRO048.PST C:\DSSAT48\PEST\                                                                
SOILS          NM.SOL       C:\DSSAT48\SOIL\                                                                
WEATHERW       ACNM1301.WTH C:\DSSAT48\Weather\                                                             
OUTPUT         OVERVIEW
*SIMULATION CONTROL 
                   1     1     S 2013119  2150 Common                   
                   Y     N     N     N     N     N     N     N     M
                   M     M     E     R     S     L     R     1     G     R     2     D     0
                   R     R     R     R     M
                   N     Y     Y     1     Y     Y     Y     N     N     N     Y     N     N
!AUTOMATIC MANAGEM  
                   -99     -99   40.  100.   30.   40.   10.
                 30.   50.  100. GS000 IR001  10.0 1.000
                 30.   50.   25. FE001 GS000
                100.     1   20.
                     0     -99  100.    0.
*EXP.DETAILS        
  1NMCL1301 SF CRITICAL STAGE BASED IRRIGATION                             
*TREATMENTS         
  1 1 1 0 13 Irrigated             
*CULTIVARS          
   SF IB0001 PI8311          
*FIELDS             
   NMCL0001 ACNM1301   0.0  -99.   -99  -99. 100.0   -99 CL     -99. NMCL000002-99.00 -99.0
    -99.0000000000  -99.0000000000   -99.000               1.0  100.   1.0 -99.0   -99   -99
*INITIAL CONDITIONS 
               0     0     0  1.00  1.00 -99.0     0  0.00  0.00  100.    0.
      5. 0.212   0.0   0.0
     15. 0.230   0.0   0.0
     30. 0.249   0.0   0.0
     40. 0.293   0.0   0.0
     50. 0.293   0.0   0.0
     60. 0.282   0.0   0.0
     70. 0.282   0.0   0.0
     90. 0.273   0.0   0.0
    110. 0.266   0.0   0.0
    130. 0.276   0.0   0.0
    150. 0.287   0.0   0.0
*PLANTING DETAILS   
   2013120     -99  48.0  48.0     S     R   15.    0.   3.5  -99.  -99. -99.0 -99.0 -99.0
*IRRIGATION         
   1.000   30.   50.  100. GS000 IR001  10.0
   2013135 IR004  51.0
   2013151 IR004  38.0
   2013162 IR004  38.0
   2013175 IR004  44.0
   2013180 IR004  38.0
   2013188 IR004  44.0
   2013206 IR004  25.0
   2013217 IR004  25.0
*FERTILIZERS        
   2013119 FE001 AP002   15.  100.   40.  -99.  -99.  -99.   -99
*RESIDUES           
*CHEMICALS          
*TILLAGE            
*ENVIRONMENT        
*HARVEST            
*SOIL               
 NMCL000002  USAD-NRCS   CL     -99.   Olton Clay Loam                                 
 ASC         USA          34.350 103.120 fine, mixed, superlative, thermic Aridic Paleustol
 R      0.14   6.0  0.60   65.  1.00  1.00 IB001 IB001 IB001 -99  
    5.       0.145 0.212 0.467 1.000 0.230  1.33 0.900  31.7  36.4 -99.0  -9.0  7.80-99.00 20.10-99.00
   15.       0.147 0.230 0.477 1.000 0.145  1.30 0.770  36.0  38.0 -99.0  -9.0  7.75-99.00 15.05-99.00
   30.       0.149 0.249 0.487 1.000 .0600  1.28 0.640  40.2  39.5 -99.0  -9.0  7.70-99.00 10.00-99.00
   40.       0.162 0.293 0.487 0.435 .0600  1.28 0.640  40.2  39.5 -99.0  -9.0  7.70-99.00 10.00-99.00
   50.       0.162 0.293 0.487 0.435 .0600  1.28 0.640  40.2  39.5 -99.0  -9.0  7.70-99.00 10.00-99.00
   60.       0.152 0.282 0.464 0.185 0.230  1.35 0.340  35.0  38.0 -99.0  -9.0  8.50-99.00 22.00-99.00
   70.       0.152 0.282 0.464 0.185 0.230  1.35 0.340  35.0  38.0 -99.0  -9.0  8.50-99.00 22.00-99.00
   90.       0.162 0.273 0.443 0.085 0.230  1.41 0.250  34.0  33.5 -99.0  -9.0  8.60-99.00 22.10-99.00
  110.       0.166 0.266 0.432 0.070 0.230  1.44 0.190  31.0  33.0 -99.0  -9.0  8.60-99.00 20.20-99.00
  130.       0.139 0.276 0.461 0.060 0.230  1.36 0.140  37.9  37.9 -99.0  -9.0  8.40-99.00 10.90-99.00
  150.       0.165 0.287 0.461 0.040 0.230  1.56 0.140  37.9  37.9 -99.0  -9.0  8.00-99.00 10.90-99.00
                    
    5.-99.00 -99.0 -99.0 -99.0 -99.0 -99.0 -99.0 -99.0 -99.0 -99.0-99.00 -99.0 -99.0 -99.0 -99.0 -99.0  -99.  -99.
   15.-99.00 -99.0 -99.0 -99.0 -99.0 -99.0 -99.0 -99.0 -99.0 -99.0-99.00 -99.0 -99.0 -99.0 -99.0 -99.0  -99.  -99.
   30.-99.00 -99.0 -99.0 -99.0 -99.0 -99.0 -99.0 -99.0 -99.0 -99.0-99.00 -99.0 -99.0 -99.0 -99.0 -99.0  -99.  -99.
   40.-99.00 -99.0 -99.0 -99.0 -99.0 -99.0 -99.0 -99.0 -99.0 -99.0-99.00 -99.0 -99.0 -99.0 -99.0 -99.0  -99.  -99.
   50.-99.00 -99.0 -99.0 -99.0 -99.0 -99.0 -99.0 -99.0 -99.0 -99.0-99.00 -99.0 -99.0 -99.0 -99.0 -99.0  -99.  -99.
   60.-99.00 -99.0 -99.0 -99.0 -99.0 -99.0 -99.0 -99.0 -99.0 -99.0-99.00 -99.0 -99.0 -99.0 -99.0 -99.0  -99.  -99.
   70.-99.00 -99.0 -99.0 -99.0 -99.0 -99.0 -99.0 -99.0 -99.0 -99.0-99.00 -99.0 -99.0 -99.0 -99.0 -99.0  -99.  -99.
   90.-99.00 -99.0 -99.0 -99.0 -99.0 -99.0 -99.0 -99.0 -99.0 -99.0-99.00 -99.0 -99.0 -99.0 -99.0 -99.0  -99.  -99.
  110.-99.00 -99.0 -99.0 -99.0 -99.0 -99.0 -99.0 -99.0 -99.0 -99.0-99.00 -99.0 -99.0 -99.0 -99.0 -99.0  -99.  -99.
  130.-99.00 -99.0 -99.0 -99.0 -99.0 -99.0 -99.0 -99.0 -99.0 -99.0-99.00 -99.0 -99.0 -99.0 -99.0 -99.0  -99.  -99.
  150.-99.00 -99.0 -99.0 -99.0 -99.0 -99.0 -99.0 -99.0 -99.0 -99.0-99.00 -99.0 -99.0 -99.0 -99.0 -99.0  -99.  -99.
                    
    5.-99.00-99.00-99.00-99.00
   15.-99.00-99.00-99.00-99.00
   30.-99.00-99.00-99.00-99.00
   40.-99.00-99.00-99.00-99.00
   50.-99.00-99.00-99.00-99.00
   60.-99.00-99.00-99.00-99.00
   70.-99.00-99.00-99.00-99.00
   90.-99.00-99.00-99.00-99.00
  110.-99.00-99.00-99.00-99.00
  130.-99.00-99.00-99.00-99.00
  150.-99.00-99.00-99.00-99.00
*CULTIVAR           
IB0001 PI8311           SF0401 23.00 0.001 16.50  3.20 14.70 30.50 20.25 1.400 250.0 115.0  0.64 0.052 29.00 18.00 18.00  46.5 0.140 0.330
