*MODEL INPUT FILE            B     1     1     1   999     0
*FILES              
MODEL          CRGRO048
FILEX          UFGA8201.PNX                                                                                 
FILEA          UFGA8201.PNA                                                                                 
FILET          UFGA8201.PNT                                                                                 
SPECIES        PNGRO048.SPE C:\DSSAT48\GENOTYPE\                                                            
ECOTYPE        PNGRO048.ECO C:\DSSAT48\GENOTYPE\                                                            
CULTIVAR       PNGRO048.CUL C:\DSSAT48\GENOTYPE\                                                            
PESTS          PNGRO048.PST C:\DSSAT48\PEST\                                                                
SOILS          SOIL.SOL     C:\DSSAT48\SOIL\                                                                
WEATHERW       UFGA8201.WTH C:\DSSAT48\Weather\                                                             
OUTPUT         OVERVIEW
*SIMULATION CONTROL 
                   1     1     S 1982130  2150 Non-nodulated, CENTURY   
                   Y     Y     N     N     N     N     N     N     M
                   M     M     E     R     S     L     R     1     P     R     2     D     0
                   R     R     R     N     R
                   N     Y     Y     1     Y     Y     Y     Y     N     N     Y     N     N
!AUTOMATIC MANAGEM  
                   -99     -99   40.  100.   30.   40.   10.
                 30.   50.  100. GS000 IR001  10.0 0.750
                 30.   50.   25. FE001 GS000
                100.     1   20.
                     0     -99  100.    0.
*EXP.DETAILS        
  1UFGA8201 PN N FERT ON NON-NOD, FLORUNNER & EARLY BUNCH                  
*TREATMENTS         
  1 1 0 0 Non-nod (M4-2), 0kgN     
*CULTIVARS          
   PN IB0082 Non-Nodulated   
*FIELDS             
   UFGA0003 UFGA8201   0.0    0. DR000    0. 100.0 00000 S      180. IBPN910015-99.00 -99.0
      0.0000000000    0.0000000000     0.000               1.0  100.   1.0   0.0   -99   -99
*INITIAL CONDITIONS 
   PN    1982130   100     0  1.00  1.00 -99.0  1000  0.80  0.00  100.   15.
      5. 0.086 0.600  1.50
     15. 0.086 0.600  1.50
     30. 0.086 0.600  1.50
     45. 0.086 0.600  1.50
     60. 0.086 0.600  1.50
     90. 0.076 0.600 0.600
    120. 0.076 0.600 0.500
    150. 0.130 0.600 0.500
    180. 0.258 0.600 0.500
*PLANTING DETAILS   
   1982130     -99   4.8   4.8     S     R   91.    0.   4.0  -99.  -99. -99.0 -99.0   0.0
*IRRIGATION         
   0.750   30.   75.  -99. GS000 IR001   0.0
   1982131 IR004  25.0
*FERTILIZERS        
*RESIDUES           
*CHEMICALS          
*TILLAGE            
*ENVIRONMENT        
*HARVEST            
   1982275 GS016     H   -99  100.    0.
*SOIL               
 IBPN910015  SCS         S      180.   Millhopper Fine Sand                            
 Gainesville USA          29.600 -82.370 Loamy,silic,hyperth Gross. Paleudults             
 -99    0.18   5.0  0.50   66.  1.00  0.92 IB001 IB001 IB001 -99  
    5.       0.023 0.086 0.230 1.000  7.40  1.36 0.900   0.9  11.8 -99.0  -9.0  7.00-99.00-99.00-99.00
   15.       0.023 0.086 0.230 1.000  7.40  1.40 0.690   0.9  11.8 -99.0  -9.0  7.00-99.00-99.00-99.00
   30.       0.023 0.086 0.230 0.550  15.8  1.46 0.280   4.6   6.4 -99.0  -9.0  7.00-99.00-99.00-99.00
   45.       0.023 0.086 0.230 0.320  28.0  1.46 0.200   5.8   5.4 -99.0  -9.0  7.00-99.00-99.00-99.00
   60.       0.023 0.086 0.230 0.320  28.0  1.47 0.200   5.8   5.4 -99.0  -9.0  7.00-99.00-99.00-99.00
   90.       0.021 0.076 0.230 0.380  27.6  1.43 0.090   9.6   4.2 -99.0  -9.0  7.00-99.00-99.00-99.00
  120.       0.020 0.076 0.230 0.400  17.5  1.48 0.030   9.6   4.2 -99.0  -9.0  7.00-99.00-99.00-99.00
  150.       0.027 0.130 0.230 0.300 0.300  1.57 0.030   8.3   3.6 -99.0  -9.0  7.00-99.00-99.00-99.00
  180.       0.070 0.258 0.360 0.200 0.100  1.79 0.030   8.3   3.6 -99.0  -9.0  7.00-99.00-99.00-99.00
                    
    5.-99.00 -99.0 -99.0 -99.0 -99.0 -99.0 -99.0 -99.0 -99.0 -99.0-99.00 -99.0 -99.0 -99.0 -99.0 -99.0  -99.  -99.
   15.-99.00 -99.0 -99.0 -99.0 -99.0 -99.0 -99.0 -99.0 -99.0 -99.0-99.00 -99.0 -99.0 -99.0 -99.0 -99.0  -99.  -99.
   30.-99.00 -99.0 -99.0 -99.0 -99.0 -99.0 -99.0 -99.0 -99.0 -99.0-99.00 -99.0 -99.0 -99.0 -99.0 -99.0  -99.  -99.
   45.-99.00 -99.0 -99.0 -99.0 -99.0 -99.0 -99.0 -99.0 -99.0 -99.0-99.00 -99.0 -99.0 -99.0 -99.0 -99.0  -99.  -99.
   60.-99.00 -99.0 -99.0 -99.0 -99.0 -99.0 -99.0 -99.0 -99.0 -99.0-99.00 -99.0 -99.0 -99.0 -99.0 -99.0  -99.  -99.
   90.-99.00 -99.0 -99.0 -99.0 -99.0 -99.0 -99.0 -99.0 -99.0 -99.0-99.00 -99.0 -99.0 -99.0 -99.0 -99.0  -99.  -99.
  120.-99.00 -99.0 -99.0 -99.0 -99.0 -99.0 -99.0 -99.0 -99.0 -99.0-99.00 -99.0 -99.0 -99.0 -99.0 -99.0  -99.  -99.
  150.-99.00 -99.0 -99.0 -99.0 -99.0 -99.0 -99.0 -99.0 -99.0 -99.0-99.00 -99.0 -99.0 -99.0 -99.0 -99.0  -99.  -99.
  180.-99.00 -99.0 -99.0 -99.0 -99.0 -99.0 -99.0 -99.0 -99.0 -99.0-99.00 -99.0 -99.0 -99.0 -99.0 -99.0  -99.  -99.
                    
    5.-99.00-99.00-99.00-99.00
   15.-99.00-99.00-99.00-99.00
   30.-99.00-99.00-99.00-99.00
   45.-99.00-99.00-99.00-99.00
   60.-99.00-99.00-99.00-99.00
   90.-99.00-99.00-99.00-99.00
  120.-99.00-99.00-99.00-99.00
  150.-99.00-99.00-99.00-99.00
  180.-99.00-99.00-99.00-99.00
*CULTIVAR           
IB0082 Non-Nodulated    PN0001 11.84 0.000 21.20  9.20 18.80 77.30 85.00 1.300 260.0  18.0  0.56 0.455 40.00  1.65 26.00  72.0 0.190 0.510
