*MODEL INPUT FILE            B     1     1     1   999     0
*FILES              
MODEL          CRGRO048
FILEX          UFGR8501.PNX                                                                                 
FILEA          UFGR8501.PNA                                                                                 
FILET          UFGR8501.PNT                                                                                 
SPECIES        PNGRO048.SPE C:\DSSAT48\GENOTYPE\                                                            
ECOTYPE        PNGRO048.ECO C:\DSSAT48\GENOTYPE\                                                            
CULTIVAR       PNGRO048.CUL C:\DSSAT48\GENOTYPE\                                                            
PESTS          PNGRO048.PST C:\DSSAT48\PEST\                                                                
SOILS          SOIL.SOL     C:\DSSAT48\SOIL\                                                                
WEATHERW       UFGR8501.WTH C:\DSSAT48\Weather\                                                             
OUTPUT         OVERVIEW
*SIMULATION CONTROL 
                   1     1     S 1985167  2150 IRRIGATED, FLORUNNER, DI 
                   Y     Y     Y     N     N     N     N     N     M
                   M     M     E     R     S     L     R     1     G     R     2     D     0
                   R     R     R     R     M
                   N     Y     Y     1     Y     Y     Y     Y     N     N     Y     N     N
!AUTOMATIC MANAGEM  
                   -99     -99   40.  100.   30.   40.   10.
                 30.   50.  100. GS000 IR001  10.0 0.750
                 30.   50.   25. FE001 GS000
                100.     1   20.
                     0     -99  100.    0.
*EXP.DETAILS        
  1UFGR8501 PN 1985 4 CULTIVARS, Disease treatments 5-8 deleted            
*TREATMENTS         
  1 1 1 0 85 FLORUNNER, +fungicide 
*CULTIVARS          
   PN IB0002 FLORUNNER       
*FIELDS             
   UFGR0001 UFGR8501   0.0    0. DR000    0. 100.0 00000 -99    180. IBPN910040-99.00 -99.0
    -99.0000000000  -99.0000000000   -99.000               1.0  100.   1.0 -99.0   -99   -99
*INITIAL CONDITIONS 
   PN    1985167   100     0  1.00  1.00 -99.0     0  0.00  0.00  100.    0.
      5. 0.086 0.600  1.50
     15. 0.086 0.600  1.50
     30. 0.086 0.600  1.50
     45. 0.086 0.600  1.50
     60. 0.086 0.600  1.50
     90. 0.076 0.600 0.600
    120. 0.076 0.600 0.500
    150. 0.130 0.600 0.500
    180. 0.258 0.600 0.500
*PLANTING DETAILS   
   1985168     -99  11.0  11.0     S     R   91.    0.   4.0  -99.  -99. -99.0 -99.0 -99.0
*IRRIGATION         
   0.750   30.   75.  -99. GS000 IR001   0.0
   1985169 IR001  12.0
   1985172 IR001  12.0
   1985210 IR001  25.0
   1985291 IR001  25.0
   1985298 IR001  19.0
*FERTILIZERS        
*RESIDUES           
*CHEMICALS          
*TILLAGE            
*ENVIRONMENT        
*HARVEST            
*SOIL               
 IBPN910040  GreenAcres, -99    180.   Millhopper Fine Sand                            
 -99         -99          -0.009  -0.099 Loamy,silic,hyperth Gross. Paleudults             
 -99    0.18   5.0  0.50   66.  1.00  0.90 IB001 IB001 IB001 -99  
    5.       0.023 0.086 0.230 1.000  7.40  1.36 0.900 -99.0 -99.0 -99.0  -9.0  7.00-99.00-99.00-99.00
   15.       0.023 0.086 0.230 1.000  7.40  1.40 0.690 -99.0 -99.0 -99.0  -9.0  7.00-99.00-99.00-99.00
   30.       0.023 0.086 0.230 0.550  15.8  1.46 0.280 -99.0 -99.0 -99.0  -9.0  7.00-99.00-99.00-99.00
   45.       0.023 0.086 0.230 0.320  28.0  1.46 0.280 -99.0 -99.0 -99.0  -9.0  7.00-99.00-99.00-99.00
   60.       0.023 0.086 0.230 0.320  28.0  1.47 0.200 -99.0 -99.0 -99.0  -9.0  7.00-99.00-99.00-99.00
   90.       0.021 0.076 0.230 0.380  27.6  1.43 0.090 -99.0 -99.0 -99.0  -9.0  7.00-99.00-99.00-99.00
  120.       0.020 0.076 0.230 0.400  17.5  1.48 0.030 -99.0 -99.0 -99.0  -9.0  7.00-99.00-99.00-99.00
  150.       0.027 0.130 0.230 0.300 0.300  1.57 0.030 -99.0 -99.0 -99.0  -9.0  7.00-99.00-99.00-99.00
  180.       0.070 0.258 0.360 0.200 0.100  1.79 0.030 -99.0 -99.0 -99.0  -9.0  7.00-99.00-99.00-99.00
                    
    5.-99.00 -99.0 -99.0 -99.0 -99.0 -99.0 -99.0 -99.0 -99.0 -99.0-99.00 -99.0 -99.0 -99.0 -99.0 -99.0  -99.  -99.
   15.-99.00 -99.0 -99.0 -99.0 -99.0 -99.0 -99.0 -99.0 -99.0 -99.0-99.00 -99.0 -99.0 -99.0 -99.0 -99.0  -99.  -99.
   30.-99.00 -99.0 -99.0 -99.0 -99.0 -99.0 -99.0 -99.0 -99.0 -99.0-99.00 -99.0 -99.0 -99.0 -99.0 -99.0  -99.  -99.
   45.-99.00 -99.0 -99.0 -99.0 -99.0 -99.0 -99.0 -99.0 -99.0 -99.0-99.00 -99.0 -99.0 -99.0 -99.0 -99.0  -99.  -99.
   60.-99.00 -99.0 -99.0 -99.0 -99.0 -99.0 -99.0 -99.0 -99.0 -99.0-99.00 -99.0 -99.0 -99.0 -99.0 -99.0  -99.  -99.
   90.-99.00 -99.0 -99.0 -99.0 -99.0 -99.0 -99.0 -99.0 -99.0 -99.0-99.00 -99.0 -99.0 -99.0 -99.0 -99.0  -99.  -99.
  120.-99.00 -99.0 -99.0 -99.0 -99.0 -99.0 -99.0 -99.0 -99.0 -99.0-99.00 -99.0 -99.0 -99.0 -99.0 -99.0  -99.  -99.
  150.-99.00 -99.0 -99.0 -99.0 -99.0 -99.0 -99.0 -99.0 -99.0 -99.0-99.00 -99.0 -99.0 -99.0 -99.0 -99.0  -99.  -99.
  180.-99.00 -99.0 -99.0 -99.0 -99.0 -99.0 -99.0 -99.0 -99.0 -99.0-99.00 -99.0 -99.0 -99.0 -99.0 -99.0  -99.  -99.
                    
    5.-99.00-99.00-99.00-99.00
   15.-99.00-99.00-99.00-99.00
   30.-99.00-99.00-99.00-99.00
   45.-99.00-99.00-99.00-99.00
   60.-99.00-99.00-99.00-99.00
   90.-99.00-99.00-99.00-99.00
  120.-99.00-99.00-99.00-99.00
  150.-99.00-99.00-99.00-99.00
  180.-99.00-99.00-99.00-99.00
*CULTIVAR           
IB0002 FLORUNNER        PN0001 11.84 0.000 21.20  9.20 18.80 74.30 88.00 1.400 260.0  18.0  0.92 0.690 40.00  1.65 24.00  80.0 0.270 0.510
