*MODEL INPUT FILE            B     1     1     1   999     0
*FILES              
MODEL          CRGRO048
FILEX          UHIH1702.QUX                                                                                 
FILEA          UHIH1702.QUA                                                                                 
FILET          UHIH1702.QUT                                                                                 
SPECIES        QUGRO048.SPE C:\DSSAT48\GENOTYPE\                                                            
ECOTYPE        QUGRO048.ECO C:\DSSAT48\GENOTYPE\                                                            
CULTIVAR       QUGRO048.CUL C:\DSSAT48\GENOTYPE\                                                            
PESTS          QUGRO048.PST C:\DSSAT48\PEST\                                                                
SOILS          UH.SOL       C:\DSSAT48\SOIL\                                                                
WEATHERW       UHIH1701.WTH C:\DSSAT48\Weather\                                                             
OUTPUT         OVERVIEW
*SIMULATION CONTROL 
                   1     1     S 2017074  2150 DEFAULT SIMULATION CONTR 
                   Y     N     N     N     N     N     N     N     M
                   M     M     E     R     S     L     R     1     G     R     3     D     0
                   R     R     R     R     R
                   N     Y     Y     1     Y     Y     Y     Y     Y     N     Y     N     Y
!AUTOMATIC MANAGEM  
                   -99     -99   40.  100.   30.   40.   10.
                 30.   50.  100. GS000 IR001  10.0 1.000
                 30.   50.   25. FE001 GS000
                100.     1   20.
                     0     -99  100.    0.
*EXP.DETAILS        
  1UHIH1702 QU QUINOA SOWING DATES                                         
*TREATMENTS         
  1 1 1 0 Zeno SD1                 
*CULTIVARS          
   QU UH0001 Zeno (00)       
*FIELDS             
   UHIH1702 UHIH1701   0.0  -99.   -99  -99. 100.0   -99 SCL    -99. UHIH022017-99.00 -99.0
    -99.0000000000  -99.0000000000   -99.000               1.0  100.   1.0 -99.0   -99   -99
*INITIAL CONDITIONS 
               0     0     0  1.00  1.00 -99.0     0  0.00  0.00  100.    0.
     30. 0.419   0.0   0.0
     60. 0.302   0.0   0.0
     90. 0.302   0.0   0.0
    120. 0.302   0.0   0.0
    150. 0.302   0.0   0.0
    180. 0.302   0.0   0.0
*PLANTING DETAILS   
   2017074 2017088 230.0  24.0     S     R   35.   90.   1.5  -99.  -99. -99.0 -99.0 -99.0
*IRRIGATION         
   1.000    0.    0.    0. GS000 IR001   0.0
*FERTILIZERS        
   2017144 FE011 AP001    0.   50.    0.    0.    0.    0.   -99
*RESIDUES           
*CHEMICALS          
*TILLAGE            
*ENVIRONMENT        
*HARVEST            
   2017221 GS000   -99   -99  100.    0.
*SOIL               
 UHIH022017  Hohenheim   SCL    -99.   Silty clay loam                                 
 Ihinger Hof Germany      48.736   8.933 Luvisol                                           
 BN     0.13   6.0  0.40   73.  1.00  1.00 IB001 IB001 IB001 -99  
   30.       0.205 0.419 0.536 1.000 0.680  1.12 1.330  27.1  70.2 -99.0 0.190  6.60-99.00-99.00-99.00
   60.       0.131 0.302 0.511 0.607 0.680  1.21 0.610  27.2  70.4 -99.0 0.110  0.00-99.00-99.00-99.00
   90.       0.131 0.302 0.511 0.407 0.680  1.21 0.410  33.1  63.6 -99.0 0.080  0.00-99.00-99.00-99.00
  120.       0.131 0.302 0.511 0.407 0.680  1.21 0.410  33.1  63.6 -99.0 0.080  0.00-99.00-99.00-99.00
  150.       0.131 0.302 0.511 0.407 0.680  1.21 0.410  33.1  63.6 -99.0 0.080  0.00-99.00-99.00-99.00
  180.       0.131 0.302 0.511 0.407 0.680  1.21 0.410  33.1  63.6 -99.0 0.080  0.00-99.00-99.00-99.00
                    
   30.-99.00 -99.0 -99.0 -99.0 -99.0 -99.0 -99.0 -99.0 -99.0 -99.0-99.00 -99.0 -99.0 -99.0 -99.0 -99.0  -99.  -99.
   60.-99.00 -99.0 -99.0 -99.0 -99.0 -99.0 -99.0 -99.0 -99.0 -99.0-99.00 -99.0 -99.0 -99.0 -99.0 -99.0  -99.  -99.
   90.-99.00 -99.0 -99.0 -99.0 -99.0 -99.0 -99.0 -99.0 -99.0 -99.0-99.00 -99.0 -99.0 -99.0 -99.0 -99.0  -99.  -99.
  120.-99.00 -99.0 -99.0 -99.0 -99.0 -99.0 -99.0 -99.0 -99.0 -99.0-99.00 -99.0 -99.0 -99.0 -99.0 -99.0  -99.  -99.
  150.-99.00 -99.0 -99.0 -99.0 -99.0 -99.0 -99.0 -99.0 -99.0 -99.0-99.00 -99.0 -99.0 -99.0 -99.0 -99.0  -99.  -99.
  180.-99.00 -99.0 -99.0 -99.0 -99.0 -99.0 -99.0 -99.0 -99.0 -99.0-99.00 -99.0 -99.0 -99.0 -99.0 -99.0  -99.  -99.
                    
   30.-99.00-99.00-99.00-99.00
   60.-99.00-99.00-99.00-99.00
   90.-99.00-99.00-99.00-99.00
  120.-99.00-99.00-99.00-99.00
  150.-99.00-99.00-99.00-99.00
  180.-99.00-99.00-99.00-99.00
*CULTIVAR           
UH0001 Zeno (00)        QU0001 14.35 0.008 11.20  2.90  8.60 34.40 26.00 1.730 250.0   7.0  1.00 0.065 22.00  2.20 16.00  75.5 0.135 0.060
