*MODEL INPUT FILE            B     1     1     1   999     0
*FILES              
MODEL          CRGRO048
FILEX          UHIH1301.CBX                                                                                 
FILEA          UHIH1301.CBA                                                                                 
FILET          UHIH1301.CBT                                                                                 
SPECIES        CBGRO048.SPE C:\DSSAT48\GENOTYPE\                                                            
ECOTYPE        CBGRO048.ECO C:\DSSAT48\GENOTYPE\                                                            
CULTIVAR       CBGRO048.CUL C:\DSSAT48\GENOTYPE\                                                            
PESTS          CBGRO048.PST C:\DSSAT48\PEST\                                                                
SOILS          UH.SOL       C:\DSSAT48\SOIL\                                                                
WEATHERW       UHIH1301.WTH C:\DSSAT48\Weather\                                                             
OUTPUT         OVERVIEW
*SIMULATION CONTROL 
                   1     1     S 2013001  2150 DEFAULT SIMULATION CONTR 
                   Y     Y     N     N     N     N     N     Y     D
                   M     M     E     R     S     L     R     1     G     R     2     D     0
                   R     R     R     N     R
                   N     Y     Y     1     Y     Y     Y     Y     Y     N     Y     N     Y
!AUTOMATIC MANAGEM  
                   -99     -99   40.  100.   30.   40.   10.
                 30.   50.  100. GS000 IR001  10.0 1.000
                 30.   50.   25. FE001 GS000
                100.     1   20.
                     0     -99  100.    0.
*EXP.DETAILS        
  1UHIH1301 CB 2013 IHINGER HOF - CALIBRATION                              
*TREATMENTS         
  1 0 0 0 IhingerHof 2013          
*CULTIVARS          
   CB 990003 Kalorama  4     
*FIELDS             
   UHIH0001 UHIH1301   0.0  -99.   -99  -99. 100.0   -99 SICL   -99. UHIH150004-99.00 -99.0
    -99.0000000000  -99.0000000000   -99.000               1.0  100.   1.0 -99.0   -99   -99
*INITIAL CONDITIONS 
   BA    2013098     0     0  1.00  1.00 -99.0     0  0.00  0.00  100.    0.
      5. 0.342 0.010  2.10
     15. 0.342 0.010  2.10
     30. 0.342 0.010  2.10
     45. 0.342 0.010  1.50
     60. 0.342 0.010  1.50
     90. 0.342 0.010  1.20
*PLANTING DETAILS   
   2013135     -99   4.0   4.0     T     R   50.    0.   5.0   22.   10.  15.0 -99.0   5.0
*IRRIGATION         
   1.000   30.   50.  100. GS000 IR001  10.0
   2013135 IR003  10.0
*FERTILIZERS        
   2013134 FE003 AP002   10.  240.  -99.  -99.  -99.  -99.   -99
*RESIDUES           
*CHEMICALS          
*TILLAGE            
   2013134 TI011  10.0
*ENVIRONMENT        
*HARVEST            
   2013283 GS016     C     A  100.    0.
*SOIL               
 UHIH150004  -99         SICL   -99. Clay loam                                         
 IHO         Germany      48.000   9.000 CL                                                
 BN     0.13   6.0  0.60   80.  0.80  0.90 IB001 IB001 IB001 -99  
    5.       0.160 0.342 0.434 0.407 0.150  1.43 -99.0  29.0  67.0 -99.0  -9.0  7.10-99.00-99.00-99.00
   15.       0.160 0.342 0.434 0.407 0.150  1.43 -99.0  29.0  67.0 -99.0  -9.0  7.10-99.00-99.00-99.00
   30.       0.160 0.342 0.434 0.407 0.150  1.43 -99.0  29.0  67.0 -99.0  -9.0  7.10-99.00-99.00-99.00
   45.       0.160 0.342 0.434 0.223 0.150  1.43 -99.0  29.0  67.0 -99.0  -9.0  7.10-99.00-99.00-99.00
   60.       0.160 0.342 0.434 0.223 0.150  1.43 -99.0  29.0  67.0 -99.0  -9.0  7.10-99.00-99.00-99.00
   90.       0.160 0.342 0.434 0.223 0.150  1.43 -99.0  29.0  67.0 -99.0  -9.0  7.00-99.00-99.00-99.00
                    
    5.-99.00 -99.0 -99.0 -99.0 -99.0 -99.0 -99.0 -99.0 -99.0 -99.0-99.00 -99.0 -99.0 -99.0 -99.0 -99.0  -99.  -99.
   15.-99.00 -99.0 -99.0 -99.0 -99.0 -99.0 -99.0 -99.0 -99.0 -99.0-99.00 -99.0 -99.0 -99.0 -99.0 -99.0  -99.  -99.
   30.-99.00 -99.0 -99.0 -99.0 -99.0 -99.0 -99.0 -99.0 -99.0 -99.0-99.00 -99.0 -99.0 -99.0 -99.0 -99.0  -99.  -99.
   45.-99.00 -99.0 -99.0 -99.0 -99.0 -99.0 -99.0 -99.0 -99.0 -99.0-99.00 -99.0 -99.0 -99.0 -99.0 -99.0  -99.  -99.
   60.-99.00 -99.0 -99.0 -99.0 -99.0 -99.0 -99.0 -99.0 -99.0 -99.0-99.00 -99.0 -99.0 -99.0 -99.0 -99.0  -99.  -99.
   90.-99.00 -99.0 -99.0 -99.0 -99.0 -99.0 -99.0 -99.0 -99.0 -99.0-99.00 -99.0 -99.0 -99.0 -99.0 -99.0  -99.  -99.
                    
    5.-99.00-99.00-99.00-99.00
   15.-99.00-99.00-99.00-99.00
   30.-99.00-99.00-99.00-99.00
   45.-99.00-99.00-99.00-99.00
   60.-99.00-99.00-99.00-99.00
   90.-99.00-99.00-99.00-99.00
*CULTIVAR           
990003 Kalorama  4      CB0403 13.09 0.000 26.00  6.00 16.00 82.00 20.00 1.250  80.0  20.0  0.65 0.190 23.00  2.20 40.00  10.0 0.180 0.020
