*MODEL INPUT FILE            B     1     1     1   999     0
*FILES              
MODEL          RICER048
FILEX          UAFD0012.RIX                                                                                 
FILEA          UAFD0012.RIA                                                                                 
FILET          UAFD0012.RIT                                                                                 
SPECIES        RICER048.SPE C:\DSSAT48\GENOTYPE\                                                            
ECOTYPE        RICER048.ECO C:\DSSAT48\GENOTYPE\                                                            
CULTIVAR       RICER048.CUL C:\DSSAT48\GENOTYPE\                                                            
PESTS          RICER048.PST C:\DSSAT48\PEST\                                                                
SOILS          UA.SOL       C:\DSSAT48\SOIL\                                                                
WEATHERW       UAFD0001.WTH C:\DSSAT48\Weather\                                                             
OUTPUT         OVERVIEW
*SIMULATION CONTROL 
                   1     1     S 2000187  2150 EFFECTS OF PD & IR (2000 
                   Y     Y     N     N     N     N     N     N     M
                   M     M     E     R     S     C     R     1     G     S     2     D     0
                   R     R     R     R     M
                   N     Y     Y     1     Y     N     Y     Y     N     N     Y     N     N
!AUTOMATIC MANAGEM  
                   -99     -99   40.  100.   30.   40.   10.
                 30.   50.  100. IB001 IB001  10.0 0.500
                 30.   50.   25. IB001 IB001
                100.     1   20.
                     0     -99  100.    0.
*EXP.DETAILS        
  1UAFD0012 RI PLANT DENSITY * IRRIGATION 2000 UAF PAKISTAN                
*TREATMENTS         
  1 1 0 0 1seedling+8-Irri         
*CULTIVARS          
   RI IB0055 Basmati 385     
*FIELDS             
   UAFD0001 UAFD0001   0.0    0. IB000    0. 100.0 00000 CL      51. UAFDLY0001-99.00 -99.0
      0.0000000000    0.0000000000     0.000               1.0  100.   1.0   0.0   -99   -99
*INITIAL CONDITIONS 
   WH    2000187   500     0  1.00  1.00 -99.0     0  0.00  0.00  100.   15.
      5. 0.374  10.0 0.700
     15. 0.351  6.50 0.560
     41. 0.362  3.31 0.331
     66. 0.313 0.010 0.010
     92. 0.293 0.010 0.010
    109. 0.293 0.010 0.010
    127. 0.293 0.010 0.010
    152. 0.313 0.010 0.010
*PLANTING DETAILS   
   2000187     -99  16.0  16.0     T     H   22.    0.   5.0    0.   30.  25.0   1.0 -99.0
*IRRIGATION         
   1.000   30.   75.  -99. GS000 IR001  10.0
   2000187 IR003 100.0
   2000194 IR003 100.0
   2000201 IR003 100.0
   2000208 IR003 100.0
   2000215 IR003 100.0
   2000222 IR003 100.0
   2000229 IR003 100.0
   2000236 IR003 100.0
*FERTILIZERS        
   2000187 FE005 AP002    3.   75.  -99.  -99.  -99.  -99.   -99
   2000208 FE005 AP001    1.   75.  -99.  -99.  -99.  -99.   -99
*RESIDUES           
   2000187 RE001    50  0.50  0.00  0.00  100.   15.   -99
*CHEMICALS          
*TILLAGE            
*ENVIRONMENT        
*HARVEST            
*SOIL               
 UAFDLY0001  SSOP        CL      51.   SANDY CLAY LOAM (Experimental site 3)           
 Faisalabad  Pakistan     31.420  73.070 Coarse-silty,mixed,hyperthermic,Typic Calciargids 
 BN     0.13   9.0  0.23   61.  1.00  1.00 IB001 IB001 IB001 -99  
    5.       0.146 0.294 0.422 1.000 0.680  1.50 0.890  26.0  56.0   0.0 0.070  7.80-99.00  9.60-99.00
   15.       0.146 0.294 0.422 1.000 0.680  1.50 0.890  26.0  56.0   0.0 0.070  7.80-99.00  9.60-99.00
   41.       0.152 0.293 0.414 0.343 0.150  1.51 0.690  28.0  53.0   0.0 0.030  7.90-99.00 10.40-99.00
   66.       0.152 0.293 0.414 0.343 0.150  1.51 0.690  28.0  53.0   0.0 0.030  7.90-99.00 10.40-99.00
   92.       0.152 0.293 0.414 0.343 0.150  1.51 0.690  28.0  53.0   0.0 0.030  7.90-99.00 10.40-99.00
  109.       0.158 0.293 0.409 0.112 0.230  1.51 0.460  30.0  50.0   0.0 0.040  8.80-99.00 14.40-99.00
  127.       0.158 0.293 0.409 0.112 0.230  1.51 0.460  30.0  50.0   0.0 0.040  8.80-99.00 14.40-99.00
  152.       0.165 0.313 0.423 0.061 0.150  1.53 0.420  32.0  54.0   0.0 0.040  8.20-99.00 15.20-99.00
                    
    5.-99.00 -99.0 -99.0 -99.0 -99.0 -99.0 -99.0 -99.0 -99.0 -99.0-99.00 -99.0 -99.0 -99.0 -99.0 -99.0  -99.  -99.
   15.-99.00 -99.0 -99.0 -99.0 -99.0 -99.0 -99.0 -99.0 -99.0 -99.0-99.00 -99.0 -99.0 -99.0 -99.0 -99.0  -99.  -99.
   41.-99.00 -99.0 -99.0 -99.0 -99.0 -99.0 -99.0 -99.0 -99.0 -99.0-99.00 -99.0 -99.0 -99.0 -99.0 -99.0  -99.  -99.
   66.-99.00 -99.0 -99.0 -99.0 -99.0 -99.0 -99.0 -99.0 -99.0 -99.0-99.00 -99.0 -99.0 -99.0 -99.0 -99.0  -99.  -99.
   92.-99.00 -99.0 -99.0 -99.0 -99.0 -99.0 -99.0 -99.0 -99.0 -99.0-99.00 -99.0 -99.0 -99.0 -99.0 -99.0  -99.  -99.
  109.-99.00 -99.0 -99.0 -99.0 -99.0 -99.0 -99.0 -99.0 -99.0 -99.0-99.00 -99.0 -99.0 -99.0 -99.0 -99.0  -99.  -99.
  127.-99.00 -99.0 -99.0 -99.0 -99.0 -99.0 -99.0 -99.0 -99.0 -99.0-99.00 -99.0 -99.0 -99.0 -99.0 -99.0  -99.  -99.
  152.-99.00 -99.0 -99.0 -99.0 -99.0 -99.0 -99.0 -99.0 -99.0 -99.0-99.00 -99.0 -99.0 -99.0 -99.0 -99.0  -99.  -99.
                    
    5.-99.00-99.00-99.00-99.00
   15.-99.00-99.00-99.00-99.00
   41.-99.00-99.00-99.00-99.00
   66.-99.00-99.00-99.00-99.00
   92.-99.00-99.00-99.00-99.00
  109.-99.00-99.00-99.00-99.00
  127.-99.00-99.00-99.00-99.00
  152.-99.00-99.00-99.00-99.00
*CULTIVAR           
IB0055 Basmati 385      IB0001 498.3 130.1 420.0  12.9  74.8 0.022  0.53 83.00  30.9  15.0  15.0
