*MODEL INPUT FILE            B     1     1     1   999     0
*FILES              
MODEL          PRFRM048
FILEX          TXEL7901.BHX                                                                                 
FILEA          TXEL7901.BHA                                                                                 
FILET          TXEL7901.BHT                                                                                 
SPECIES        BHFRM048.SPE C:\DSSAT48\GENOTYPE\                                                            
ECOTYPE        BHFRM048.ECO C:\DSSAT48\GENOTYPE\                                                            
CULTIVAR       BHFRM048.CUL C:\DSSAT48\GENOTYPE\                                                            
PESTS          BHFRM048.PST C:\DSSAT48\PEST\                                                                
SOILS          TX.SOL       C:\DSSAT48\SOIL\                                                                
WEATHERW       TXEL7801.WTH C:\DSSAT48\Weather\                                                             
OUTPUT         OVERVIEW
*SIMULATION CONTROL 
                   1     1     P 1978060  2150 BAHIA                    
                   Y     Y     N     N     N     N     N     N     M
                   M     M     E     R     S     L     R     1     P     R     2     D     0
                   R     N     R     N     R
                   N     Y     Y     1     Y     Y     Y     Y     N     Y     Y     N     N
!AUTOMATIC MANAGEM  
                   -99     -99   40.  100.   30.   40.   10.
                 30.   50.  100. IB001 IB001  10.0 0.000
                 30.   50.   25. IB001 IB001
                100.     1   20.
                     0     -99  100.    0.
*EXP.DETAILS        
  1TXEL7901 BH PENSOCOLA BAHIAGRASS AT EAGLE LAKE, TEXAS, CROW             
*TREATMENTS         
  1 1 0 0 DRYLAND -    0 KG N/HA   
*CULTIVARS          
   BH UF0001 Pensacola       
*FIELDS             
   TXEL0001 TXEL7801   0.0    0. IB000    0. 100.0 00000 FSALO  180. TXEL790001-99.00 -99.0
      0.0000000000    0.0000000000     0.000               1.0  100.   1.0   0.0   -99   -99
*INITIAL CONDITIONS 
   MZ    1979001  1200     0  1.00  1.00 -99.0  1000  0.80  0.00  100.   15.
      5. 0.204 0.300 0.800
     15. 0.204 0.300 0.800
     28. 0.204 0.300 0.800
     38. 0.204 0.300 0.800
     47. 0.398 0.200 0.700
     56. 0.398 0.200 0.700
     76. 0.335 0.200 0.500
     97. 0.335 0.200 0.500
    114. 0.335 0.200 0.500
    132. 0.335 0.200 0.500
    157. 0.335 0.200 0.500
*PLANTING DETAILS   
   1978060     -99 999.0 999.0     T     R   10.    0.   2.0 9999.   60.  32.0   1.0   0.0
*IRRIGATION         
   1.000    0.    0.    0. GS000 IR001   0.0
*FERTILIZERS        
   1979091 FE001 IB001    0.    0.  -99.  -99.  -99.  -99.   -99
*RESIDUES           
*CHEMICALS          
*TILLAGE            
*ENVIRONMENT        
   1978060 A 0.0 A 0.0 A 0.0 A 0.0 A 0.0 R 350 A 0.0 A 0.0
*HARVEST            
   1981309 GS000    HA   -99  100.    0.
*SOIL               
 TXEL790001  SCS         FSALO  180. Crowley fine sandy loam !back, original, kjb 9-21-
 EAGLE LA,TX U.S.A.       29.600 -96.300 FINE, MONTMORILLONITIC, THERMIC TYPIC ALBAQUALFS  
 BN     0.13   8.8  0.40   30.  1.00  1.00 IB001 IB001 IB001 -99  
    5.       0.080 0.204 0.337 1.000  -99.  1.60 1.000  10.0  30.0   0.0  -9.0  6.00-99.00-99.00-99.00
   15.       0.080 0.204 0.337 1.000  -99.  1.60 1.000  10.0  30.0   0.0  -9.0  6.00-99.00-99.00-99.00
   28.       0.080 0.204 0.337 1.000  -99.  1.60 1.000  10.0  30.0   0.0  -9.0  6.00-99.00-99.00-99.00
   38.       0.080 0.204 0.337 0.670  -99.  1.60 0.650  10.0  30.0   0.0  -9.0  6.00-99.00-99.00-99.00
   47.       0.280 0.398 0.448 0.540  -99.  1.50 0.600  55.0  20.0   0.0  -9.0  6.00-99.00-99.00-99.00
   56.       0.280 0.398 0.448 0.540  -99.  1.50 0.600  55.0  20.0   0.0  -9.0  6.00-99.00-99.00-99.00
   76.       0.223 0.335 0.385 0.370  -99.  1.60 0.400  42.0   8.0   0.0  -9.0  6.00-99.00-99.00-99.00
   97.       0.223 0.335 0.385 0.370  -99.  1.60 0.400  42.0   8.0   0.0  -9.0  6.00-99.00-99.00-99.00
  114.       0.223 0.335 0.385 0.250  -99.  1.60 0.250  42.0   8.0   0.0  -9.0  6.00-99.00-99.00-99.00
  132.       0.223 0.335 0.385 0.250  -99.  1.60 0.250  42.0   8.0   0.0  -9.0  6.00-99.00-99.00-99.00
  157.       0.223 0.335 0.385 0.210  -99.  1.60 0.150  42.0   8.0   0.0  -9.0  6.00-99.00-99.00-99.00
                    
    5.-99.00 -99.0 -99.0 -99.0 -99.0 -99.0 -99.0 -99.0 -99.0 -99.0-99.00 -99.0 -99.0 -99.0 -99.0 -99.0 0.660  -99.
   15.-99.00 -99.0 -99.0 -99.0 -99.0 -99.0 -99.0 -99.0 -99.0 -99.0-99.00 -99.0 -99.0 -99.0 -99.0 -99.0 0.660  -99.
   28.-99.00 -99.0 -99.0 -99.0 -99.0 -99.0 -99.0 -99.0 -99.0 -99.0-99.00 -99.0 -99.0 -99.0 -99.0 -99.0 0.660  -99.
   38.-99.00 -99.0 -99.0 -99.0 -99.0 -99.0 -99.0 -99.0 -99.0 -99.0-99.00 -99.0 -99.0 -99.0 -99.0 -99.0 0.430  -99.
   47.-99.00 -99.0 -99.0 -99.0 -99.0 -99.0 -99.0 -99.0 -99.0 -99.0-99.00 -99.0 -99.0 -99.0 -99.0 -99.0 0.400  -99.
   56.-99.00 -99.0 -99.0 -99.0 -99.0 -99.0 -99.0 -99.0 -99.0 -99.0-99.00 -99.0 -99.0 -99.0 -99.0 -99.0 0.400  -99.
   76.-99.00 -99.0 -99.0 -99.0 -99.0 -99.0 -99.0 -99.0 -99.0 -99.0-99.00 -99.0 -99.0 -99.0 -99.0 -99.0 0.260  -99.
   97.-99.00 -99.0 -99.0 -99.0 -99.0 -99.0 -99.0 -99.0 -99.0 -99.0-99.00 -99.0 -99.0 -99.0 -99.0 -99.0 0.260  -99.
  114.-99.00 -99.0 -99.0 -99.0 -99.0 -99.0 -99.0 -99.0 -99.0 -99.0-99.00 -99.0 -99.0 -99.0 -99.0 -99.0 0.170  -99.
  132.-99.00 -99.0 -99.0 -99.0 -99.0 -99.0 -99.0 -99.0 -99.0 -99.0-99.00 -99.0 -99.0 -99.0 -99.0 -99.0 0.170  -99.
  157.-99.00 -99.0 -99.0 -99.0 -99.0 -99.0 -99.0 -99.0 -99.0 -99.0-99.00 -99.0 -99.0 -99.0 -99.0 -99.0 0.100  -99.
                    
    5.-99.00-99.00-99.00-99.00
   15.-99.00-99.00-99.00-99.00
   28.-99.00-99.00-99.00-99.00
   38.-99.00-99.00-99.00-99.00
   47.-99.00-99.00-99.00-99.00
   56.-99.00-99.00-99.00-99.00
   76.-99.00-99.00-99.00-99.00
   97.-99.00-99.00-99.00-99.00
  114.-99.00-99.00-99.00-99.00
  132.-99.00-99.00-99.00-99.00
  157.-99.00-99.00-99.00-99.00
*CULTIVAR           
UF0001 Pensacola        G00001 12.50 0.200 99.00 10.00 18.00 33.00 25.00 1.800 180.0   2.0  0.01 0.020 15.00  2.05 20.00  78.0 0.115 0.035
