*MODEL INPUT FILE            B     1     1     1   999     0
*FILES              
MODEL          CRGRO048
FILEX          NCCL8801.SBX                                                                                 
FILEA          NCCL8801.SBA                                                                                 
FILET          NCCL8801.SBT                                                                                 
SPECIES        SBGRO048.SPE C:\DSSAT48\GENOTYPE\                                                            
ECOTYPE        SBGRO048.ECO C:\DSSAT48\GENOTYPE\                                                            
CULTIVAR       SBGRO048.CUL C:\DSSAT48\GENOTYPE\                                                            
PESTS          SBGRO048.PST C:\DSSAT48\PEST\                                                                
SOILS          SOIL.SOL     C:\DSSAT48\SOIL\                                                                
WEATHERW       NCCL8801.WTH C:\DSSAT48\Weather\                                                             
OUTPUT         OVERVIEW
*SIMULATION CONTROL 
                   1     1     S 1988100  2150 SEED COMPOSITION, NORTH  
                   Y     Y     Y     N     N     N     N     Y     M
                   M     M     E     R     S     L     R     1     G     R     2     D     0
                   R     R     R     R     M
                   N     Y     Y     3     Y     Y     Y     Y     N     N     Y     N     N
!AUTOMATIC MANAGEM  
                   -99     -99   40.  100.   30.   40.   10.
                 30.   50.  100. GS000 IRI01  10.0 0.750
                 30.   50.   25. FE001 GS000
                100.     1   20.
                     0     -99  100.    0.
*EXP.DETAILS        
  1NCCL8801 SB WILKERSON, NORTH CAROLINA                                   
*TREATMENTS         
  1 1 0 0 CENTENNIAL, PLT-1        
*CULTIVARS          
   SB IB0014 CENTENNIAL(6)   
*FIELDS             
   NCCL0001 NCCL8801   0.0    0. DR000    0. 100.0 00000 -99      0. IBSB910009-99.00 -99.0
    -99.0000000000  -99.0000000000   -99.000               1.0  100.   1.0 -99.0   -99   -99
*INITIAL CONDITIONS 
   SB    1988100   100     0  1.00  1.00 -99.0     0  0.00  0.00  100.    0.
      5. 0.169 0.600  1.50
     15. 0.169 0.600  1.50
     25. 0.169 0.600  1.50
     33. 0.177 0.600  1.50
     46. 0.165 0.600 0.600
     61. 0.291 0.600 0.500
     76. 0.291 0.600 0.500
    106. 0.291 0.600 0.500
    136. 0.291 0.600 0.500
*PLANTING DETAILS   
   1988109     -99  25.1  25.1     S     R   97.    0.   3.5  -99.  -99. -99.0 -99.0 -99.0
*IRRIGATION         
   0.750   30.   75.  -99. GS000 IR001   0.0
   1988161 IR001  25.0
   1988182 IR001  25.0
   1988195 IR001  33.0
   1988231 IR001  33.0
*FERTILIZERS        
*RESIDUES           
   1988105 RE001  1000  0.80  0.00  0.00  100.   15.   -99
*CHEMICALS          
*TILLAGE            
*ENVIRONMENT        
*HARVEST            
*SOIL               
 IBSB910009  IBSNAT      -99      0.   Norfolk Sandy Clay Loam (                       
 -99         USA          -0.009  -0.099 Fine loamy,silic.,therm. Typic Paleudults         
 -99    0.14   3.0  0.23   60.  1.00  0.95 IB001 IB001 IB001 -99  
    5.       0.042 0.169 0.392 1.000  -99.  1.20 -99.0 -99.0 -99.0 -99.0  -9.0  7.00-99.00-99.00-99.00
   15.       0.042 0.169 0.392 1.000  -99.  1.20 -99.0 -99.0 -99.0 -99.0  -9.0  7.00-99.00-99.00-99.00
   25.       0.042 0.169 0.392 0.779  -99.  1.20 -99.0 -99.0 -99.0 -99.0  -9.0  7.00-99.00-99.00-99.00
   33.       0.044 0.177 0.358 0.349  -99.  1.20 -99.0 -99.0 -99.0 -99.0  -9.0  7.00-99.00-99.00-99.00
   46.       0.056 0.165 0.396 0.209  -99.  1.20 -99.0 -99.0 -99.0 -99.0  -9.0  7.00-99.00-99.00-99.00
   61.       0.150 0.291 0.377 0.070  -99.  1.20 -99.0 -99.0 -99.0 -99.0  -9.0  7.00-99.00-99.00-99.00
   76.       0.150 0.291 0.377 0.070  -99.  1.20 -99.0 -99.0 -99.0 -99.0  -9.0  7.00-99.00-99.00-99.00
  106.       0.150 0.291 0.377 0.017  -99.  1.20 -99.0 -99.0 -99.0 -99.0  -9.0  7.00-99.00-99.00-99.00
  136.       0.150 0.291 0.377 0.000  -99.  1.20 -99.0 -99.0 -99.0 -99.0  -9.0  7.00-99.00-99.00-99.00
                    
    5.-99.00 -99.0 -99.0 -99.0 -99.0 -99.0 -99.0 -99.0 -99.0 -99.0-99.00 -99.0 -99.0 -99.0 -99.0 -99.0  -99.  -99.
   15.-99.00 -99.0 -99.0 -99.0 -99.0 -99.0 -99.0 -99.0 -99.0 -99.0-99.00 -99.0 -99.0 -99.0 -99.0 -99.0  -99.  -99.
   25.-99.00 -99.0 -99.0 -99.0 -99.0 -99.0 -99.0 -99.0 -99.0 -99.0-99.00 -99.0 -99.0 -99.0 -99.0 -99.0  -99.  -99.
   33.-99.00 -99.0 -99.0 -99.0 -99.0 -99.0 -99.0 -99.0 -99.0 -99.0-99.00 -99.0 -99.0 -99.0 -99.0 -99.0  -99.  -99.
   46.-99.00 -99.0 -99.0 -99.0 -99.0 -99.0 -99.0 -99.0 -99.0 -99.0-99.00 -99.0 -99.0 -99.0 -99.0 -99.0  -99.  -99.
   61.-99.00 -99.0 -99.0 -99.0 -99.0 -99.0 -99.0 -99.0 -99.0 -99.0-99.00 -99.0 -99.0 -99.0 -99.0 -99.0  -99.  -99.
   76.-99.00 -99.0 -99.0 -99.0 -99.0 -99.0 -99.0 -99.0 -99.0 -99.0-99.00 -99.0 -99.0 -99.0 -99.0 -99.0  -99.  -99.
  106.-99.00 -99.0 -99.0 -99.0 -99.0 -99.0 -99.0 -99.0 -99.0 -99.0-99.00 -99.0 -99.0 -99.0 -99.0 -99.0  -99.  -99.
  136.-99.00 -99.0 -99.0 -99.0 -99.0 -99.0 -99.0 -99.0 -99.0 -99.0-99.00 -99.0 -99.0 -99.0 -99.0 -99.0  -99.  -99.
                    
    5.-99.00-99.00-99.00-99.00
   15.-99.00-99.00-99.00-99.00
   25.-99.00-99.00-99.00-99.00
   33.-99.00-99.00-99.00-99.00
   46.-99.00-99.00-99.00-99.00
   61.-99.00-99.00-99.00-99.00
   76.-99.00-99.00-99.00-99.00
  106.-99.00-99.00-99.00-99.00
  136.-99.00-99.00-99.00-99.00
*CULTIVAR           
IB0014 CENTENNIAL(6)    SB0601 12.48 0.311 20.00  9.00 15.50 34.50 18.00 1.030 375.0 180.0  1.00 0.180 23.00  2.05 10.00  78.0 0.400 0.200
