*MODEL INPUT FILE            B     1     1     1   999     0
*FILES              
MODEL          CRGRO048
FILEX          UFGA8501.BNX                                                                                 
FILEA          UFGA8501.BNA                                                                                 
FILET          UFGA8501.BNT                                                                                 
SPECIES        BNGRO048.SPE C:\DSSAT48\GENOTYPE\                                                            
ECOTYPE        BNGRO048.ECO C:\DSSAT48\GENOTYPE\                                                            
CULTIVAR       BNGRO048.CUL C:\DSSAT48\GENOTYPE\                                                            
PESTS          BNGRO048.PST C:\DSSAT48\PEST\                                                                
SOILS          SOIL.SOL     C:\DSSAT48\SOIL\                                                                
WEATHERW       UFGA8501.WTH C:\DSSAT48\Weather\                                                             
OUTPUT         OVERVIEW
*SIMULATION CONTROL 
                   1     1     S 1985182  2150 4 CULTIVARS, IRR. & NONI 
                   Y     Y     Y     N     N     N     N     N     M
                   M     M     E     R     S     L     R     1     G     R     2     D     0
                   R     R     R     R     M
                   N     Y     Y     1     Y     N     Y     Y     N     N     Y     N     N
!AUTOMATIC MANAGEM  
                   -99     -99   40.  100.   30.   40.   10.
                 30.   50.  100. GS000 IR001  10.0 0.750
                 30.   50.   25. FE001 GS000
                100.     1   20.
                     0     -99  100.    0.
*EXP.DETAILS        
  1UFGA8501 BN 4 CULTIVARS, IRR. & NONIRRIGATED                            
*TREATMENTS         
  1 1 0 0 ISABELLA   IRRIGATED     
*CULTIVARS          
   BN IB0011 Isabella        
*FIELDS             
   UFGA0001 UFGA8501   0.0    0. DR000    0. 100.0 00000 VFSA   180. IBBN910016-99.00 -99.0
      0.0000000000    0.0000000000     0.000               1.0  100.   1.0   0.0   -99   -99
*INITIAL CONDITIONS 
   BN    1985182     1     0  1.00  1.00 -99.0     0  0.00  0.00  100.   15.
      5. 0.086 0.600  1.50
     15. 0.086 0.600  1.50
     30. 0.086 0.600  1.50
     45. 0.086 0.600  1.50
     60. 0.086 0.600  1.50
     90. 0.076 0.600 0.600
    120. 0.076 0.600 0.500
    150. 0.130 0.600 0.500
    180. 0.258 0.600 0.500
*PLANTING DETAILS   
   1985182     -99  51.7  51.7     S     R   38.    0.   2.0  -99.  -99. -99.0 -99.0   0.0
*IRRIGATION         
   0.750   30.   75.  -99. GS000 IR001   0.0
   1985184 IR001  10.0
   1985191 IR001  10.0
   1985205 IR001  10.0
   1985208 IR001  15.0
   1985254 IR001  15.0
   1985259 IR001   6.0
   1985262 IR001  19.0
   1985267 IR001  15.0
*FERTILIZERS        
*RESIDUES           
*CHEMICALS          
*TILLAGE            
*ENVIRONMENT        
*HARVEST            
*SOIL               
 IBBN910016  SCS         VFSA   180.   Millhoper Fine Sand, W-2, Kendrick clay closer t
 Gainesville USA          29.600 -82.370 Loamy,silic,hyperth Gross. Paleudults             
 -99    0.18   5.0  0.50   66.  1.00  0.90 IB001 IB001 IB001 -99  
    5.       0.023 0.086 0.230 1.000  7.40  1.47 0.900   0.9  11.8 -99.0  -9.0  5.30-99.00-99.00-99.00
   15.       0.023 0.086 0.230 1.000  7.40  1.47 0.690   0.9  11.8 -99.0  -9.0  5.40-99.00-99.00-99.00
   30.       0.023 0.086 0.230 0.900  15.8  1.41 0.280   4.6   6.4 -99.0  -9.0  5.70-99.00-99.00-99.00
   45.       0.023 0.086 0.230 0.700  28.0  1.43 0.200   5.8   5.4 -99.0  -9.0  5.80-99.00-99.00-99.00
   60.       0.023 0.086 0.230 0.500  28.0  1.43 0.200   5.8   5.4 -99.0  -9.0  5.80-99.00-99.00-99.00
   90.       0.027 0.130 0.230 0.200  27.6  1.52 0.090   9.6   4.2 -99.0  -9.0  5.90-99.00-99.00-99.00
  120.       0.027 0.130 0.230 0.100  17.5  1.52 0.030   9.6   4.2 -99.0  -9.0  5.90-99.00-99.00-99.00
  150.       0.027 0.130 0.230 0.050 0.300  1.46 0.030   8.3   3.6 -99.0  -9.0  5.90-99.00-99.00-99.00
  180.       0.070 0.258 0.360 0.000 0.100  1.46 0.030   8.3   3.6 -99.0  -9.0  5.90-99.00-99.00-99.00
                    
    5.-99.00 -99.0 -99.0 -99.0 -99.0 -99.0 -99.0 -99.0 -99.0 -99.0-99.00 -99.0 -99.0 -99.0 -99.0 -99.0  -99.  -99.
   15.-99.00 -99.0 -99.0 -99.0 -99.0 -99.0 -99.0 -99.0 -99.0 -99.0-99.00 -99.0 -99.0 -99.0 -99.0 -99.0  -99.  -99.
   30.-99.00 -99.0 -99.0 -99.0 -99.0 -99.0 -99.0 -99.0 -99.0 -99.0-99.00 -99.0 -99.0 -99.0 -99.0 -99.0  -99.  -99.
   45.-99.00 -99.0 -99.0 -99.0 -99.0 -99.0 -99.0 -99.0 -99.0 -99.0-99.00 -99.0 -99.0 -99.0 -99.0 -99.0  -99.  -99.
   60.-99.00 -99.0 -99.0 -99.0 -99.0 -99.0 -99.0 -99.0 -99.0 -99.0-99.00 -99.0 -99.0 -99.0 -99.0 -99.0  -99.  -99.
   90.-99.00 -99.0 -99.0 -99.0 -99.0 -99.0 -99.0 -99.0 -99.0 -99.0-99.00 -99.0 -99.0 -99.0 -99.0 -99.0  -99.  -99.
  120.-99.00 -99.0 -99.0 -99.0 -99.0 -99.0 -99.0 -99.0 -99.0 -99.0-99.00 -99.0 -99.0 -99.0 -99.0 -99.0  -99.  -99.
  150.-99.00 -99.0 -99.0 -99.0 -99.0 -99.0 -99.0 -99.0 -99.0 -99.0-99.00 -99.0 -99.0 -99.0 -99.0 -99.0  -99.  -99.
  180.-99.00 -99.0 -99.0 -99.0 -99.0 -99.0 -99.0 -99.0 -99.0 -99.0-99.00 -99.0 -99.0 -99.0 -99.0 -99.0  -99.  -99.
                    
    5.-99.00-99.00-99.00-99.00
   15.-99.00-99.00-99.00-99.00
   30.-99.00-99.00-99.00-99.00
   45.-99.00-99.00-99.00-99.00
   60.-99.00-99.00-99.00-99.00
   90.-99.00-99.00-99.00-99.00
  120.-99.00-99.00-99.00-99.00
  150.-99.00-99.00-99.00-99.00
  180.-99.00-99.00-99.00-99.00
*CULTIVAR           
IB0011 Isabella         ANDDET 12.17 0.000 26.30  2.50 10.00 21.00 10.00 0.950 300.0 140.0  1.00 0.500 19.00  3.50 10.00  78.0 0.235 0.030
