*MODEL INPUT FILE            B     1     1     1   999     0
*FILES              
MODEL          PRFRM048
FILEX          UFON9401.BHX                                                                                 
FILEA          UFON9401.BHA                                                                                 
FILET          UFON9401.BHT                                                                                 
SPECIES        BHFRM048.SPE C:\DSSAT48\GENOTYPE\                                                            
ECOTYPE        BHFRM048.ECO C:\DSSAT48\GENOTYPE\                                                            
CULTIVAR       BHFRM048.CUL C:\DSSAT48\GENOTYPE\                                                            
PESTS          BHFRM048.PST C:\DSSAT48\PEST\                                                                
SOILS          UF.SOL       C:\DSSAT48\SOIL\                                                                
WEATHERW       UFON9201.WTH C:\DSSAT48\Weather\                                                             
OUTPUT         OVERVIEW
*SIMULATION CONTROL 
                   1     1     S 1992173  2150 1994-1995 Bahia Experime 
                   Y     Y     N     N     N     N     N     N     M
                   M     M     E     R     S     L     R     1     P     R     2     D     0
                   R     N     R     N     R
                   N     Y     Y     1     Y     Y     Y     Y     N     Y     Y     N     N
!AUTOMATIC MANAGEM  
                   -99     -99   40.  100.   30.   40.   10.
                 30.   50.  100. IB001 IB001  10.0 0.000
                 30.   50.   25. IB001 IB001
                100.     1   20.
                     0     -99  100.    0.
*EXP.DETAILS        
  1UFON9401 BH ONA, POMONA FINE SAND, 2 YR SEQ.                            
*TREATMENTS         
  1 1 0 0 DRYLAND -Pensocola 94-95 
*CULTIVARS          
   BH UF0001 Pensacola       
*FIELDS             
   UFON0001 UFON9201   0.0    0. DR000    0. 100.0 00000 S      180. UFON780001-99.00 -99.0
      0.0000000000    0.0000000000     0.000               1.0  100.   1.0   0.0   -99   -99
*INITIAL CONDITIONS 
   G0    1992173  3000     0  0.00  0.00 -99.0     0  0.50  0.00  100.   15.
      5. 0.237 0.300 0.800
     15. 0.237 0.300 0.800
     25. 0.146 0.300 0.800
     39. 0.148 0.200 0.700
     54. 0.148 0.200 0.660
     68. 0.235 0.200 0.500
     78. 0.264 0.200 0.500
     89. 0.261 0.200 0.500
    117. 0.207 0.200 0.500
    145. 0.226 0.200 0.500
    203. 0.224 0.200 0.500
*PLANTING DETAILS   
   1992174 1992184 672.0 510.0     S     U    4.    0.   2.0 1974.  -99. -99.0 -99.0   0.0
*IRRIGATION         
   1.000    0.    0.    0. GS000 IR001   0.0
*FERTILIZERS        
   1992239 FE001 AP001    0.   56.  -99.  -99.  -99.  -99.   -99
   1993244 FE001 AP001    0.   56.  -99.  -99.  -99.  -99.   -99
   1994244 FE001 AP001    0.   56.  -99.  -99.  -99.  -99.   -99
*RESIDUES           
*CHEMICALS          
*TILLAGE            
*ENVIRONMENT        
*HARVEST            
   1995103 GS000   -99   -99  100.    0.
*SOIL               
 UFON780001  S25-2-(1-7) S      180. Pomona Fine Sand                                  
 Ona REC     USA          27.420 -81.920 Ultic Haplaquods, sandy, siliceous, hyperthermic  
 BL     0.09   5.9  0.60   30.  1.00  0.92 IB001 IB001 IB001 -99  
    5.       0.052 0.165 0.438 1.000  21.0  1.32 1.020   0.6   5.5   0.0  -9.0  5.20-99.00  8.10-99.00
   15.       0.026 0.144 0.495 1.000  13.9  1.49 0.495   0.5   4.0   0.0  -9.0  4.99-99.00  2.64-99.00
   25.       0.015 0.135 0.520 1.000  10.9  1.56 0.270   0.5   3.4   0.0  -9.0  4.90-99.00  0.30-99.00
   39.       0.010 0.048 0.322 1.000  13.8  1.68 0.110   0.4   2.3   0.0  -9.0  4.90-99.00  0.00-99.00
   54.       0.010 0.048 0.322 1.000  13.8  1.68 0.110   0.4   2.3   0.0  -9.0  4.90-99.00  0.00-99.00
   68.       0.010 0.048 0.322 1.000  13.8  1.68 0.110   0.4   2.3   0.0  -9.0  4.90-99.00  0.00-99.00
   78.       0.022 0.099 0.326 0.800  3.20  1.78 0.620   1.6   5.4   0.0  -9.0  4.50-99.00  5.30-99.00
   89.       0.022 0.099 0.326 0.800  3.20  1.78 0.620   1.6   5.4   0.0  -9.0  4.50-99.00  5.30-99.00
  117.       0.010 0.084 0.334 0.800  4.70  1.77 0.350   1.1   2.9   0.0  -9.0  4.70-99.00  2.30-99.00
  145.       0.016 0.124 0.334 0.600  2.20  1.75 0.280   2.6   2.9   0.0  -9.0  5.00-99.00  2.50-99.00
  203.       0.084 0.212 0.375 0.031 0.200  1.71 0.130  16.6   3.3   0.0  -9.0  5.00-99.00 11.00-99.00
                    
    5.-99.00 -99.0 -99.0 -99.0 -99.0 -99.0 -99.0 -99.0 -99.0 -99.0-99.00 -99.0 -99.0 -99.0 -99.0 -99.0 0.840  -99.
   15.-99.00 -99.0 -99.0 -99.0 -99.0 -99.0 -99.0 -99.0 -99.0 -99.0-99.00 -99.0 -99.0 -99.0 -99.0 -99.0 0.406  -99.
   25.-99.00 -99.0 -99.0 -99.0 -99.0 -99.0 -99.0 -99.0 -99.0 -99.0-99.00 -99.0 -99.0 -99.0 -99.0 -99.0 0.220  -99.
   39.-99.00 -99.0 -99.0 -99.0 -99.0 -99.0 -99.0 -99.0 -99.0 -99.0-99.00 -99.0 -99.0 -99.0 -99.0 -99.0 0.100  -99.
   54.-99.00 -99.0 -99.0 -99.0 -99.0 -99.0 -99.0 -99.0 -99.0 -99.0-99.00 -99.0 -99.0 -99.0 -99.0 -99.0 0.100  -99.
   68.-99.00 -99.0 -99.0 -99.0 -99.0 -99.0 -99.0 -99.0 -99.0 -99.0-99.00 -99.0 -99.0 -99.0 -99.0 -99.0 0.100  -99.
   78.-99.00 -99.0 -99.0 -99.0 -99.0 -99.0 -99.0 -99.0 -99.0 -99.0-99.00 -99.0 -99.0 -99.0 -99.0 -99.0 0.510  -99.
   89.-99.00 -99.0 -99.0 -99.0 -99.0 -99.0 -99.0 -99.0 -99.0 -99.0-99.00 -99.0 -99.0 -99.0 -99.0 -99.0 0.510  -99.
  117.-99.00 -99.0 -99.0 -99.0 -99.0 -99.0 -99.0 -99.0 -99.0 -99.0-99.00 -99.0 -99.0 -99.0 -99.0 -99.0 0.290  -99.
  145.-99.00 -99.0 -99.0 -99.0 -99.0 -99.0 -99.0 -99.0 -99.0 -99.0-99.00 -99.0 -99.0 -99.0 -99.0 -99.0 0.230  -99.
  203.-99.00 -99.0 -99.0 -99.0 -99.0 -99.0 -99.0 -99.0 -99.0 -99.0-99.00 -99.0 -99.0 -99.0 -99.0 -99.0 0.120  -99.
                    
    5.-99.00-99.00-99.00-99.00
   15.-99.00-99.00-99.00-99.00
   25.-99.00-99.00-99.00-99.00
   39.-99.00-99.00-99.00-99.00
   54.-99.00-99.00-99.00-99.00
   68.-99.00-99.00-99.00-99.00
   78.-99.00-99.00-99.00-99.00
   89.-99.00-99.00-99.00-99.00
  117.-99.00-99.00-99.00-99.00
  145.-99.00-99.00-99.00-99.00
  203.-99.00-99.00-99.00-99.00
*CULTIVAR           
UF0001 Pensacola        G00001 12.50 0.200 99.00 10.00 18.00 33.00 25.00 1.800 180.0   2.0  0.01 0.020 15.00  2.05 20.00  78.0 0.115 0.035
