*MODEL INPUT FILE            B     1     1     1   999     0
*FILES              
MODEL          CRGRO048
FILEX          CCYU8101.BRX                                                                                 
FILEA          CCYU8101.BRA                                                                                 
FILET          CCYU8101.BRT                                                                                 
SPECIES        BRGRO048.SPE C:\DSSAT48\GENOTYPE\                                                            
ECOTYPE        BRGRO048.ECO C:\DSSAT48\GENOTYPE\                                                            
CULTIVAR       BRGRO048.CUL C:\DSSAT48\GENOTYPE\                                                            
PESTS          BRGRO048.PST C:\DSSAT48\PEST\                                                                
SOILS          SOIL.SOL     C:\DSSAT48\SOIL\                                                                
WEATHERW       CCYU8001.WTH C:\DSSAT48\Weather\                                                             
OUTPUT         OVERVIEW
*SIMULATION CONTROL 
                   1     1     S 1980308  2150 BRACH : C4GRASS 3 YR     
                   Y     Y     N     N     N     Y     N     N     M
                   M     M     E     R     S     C     R     1     P     R     2     D     0
                   R     R     R     N     R
                   N     Y     Y     1     Y     Y     Y     Y     N     Y     Y     N     N
!AUTOMATIC MANAGEM  
                   -99     -99   40.  100.   30.   40.   10.
                 30.   50.  100. GS000 IR001  10.0 1.000
                 30.   50.   25. FE001 GS000
                100.     1   20.
                     0     -99  100.    0.
*EXP.DETAILS        
  1CCYU8101 BR BRACHIARIA ON YURIMAGUAS                                    
*TREATMENTS         
  1 0 0 0 81 Treatment 1           
*CULTIVARS          
   BR CC0002 Brachiaria 2    
*FIELDS             
   CCYU0001 CCYU8001   0.0    0. DR000    0. 100.0     0 LOSA   120. CCYU820001-99.00 -99.0
      0.0000000000    0.0000000000   184.000               1.0  100.   1.0   0.0   -99   -99
*INITIAL CONDITIONS 
   SB    1980308     0     0  1.00  1.00 -99.0     0  0.00  0.00  100.   15.
      5. 0.190 0.500  6.30
     15. 0.205 0.350  4.60
     20. 0.210 0.200  3.90
     25. 0.200 0.200  3.50
     30. 0.200 0.200  3.20
     35. 0.200 0.200  2.80
     40. 0.200 0.200  2.60
     55. 0.200 0.200  1.80
     70. 0.200 0.200  1.80
     95. 0.200  1.00 0.800
    120. 0.200  1.00 0.800
*PLANTING DETAILS   
   1980316 1980324 100.0 100.0     S     R   10.    0.   1.0    3.  -99. -99.0 -99.0   0.0
*IRRIGATION         
   1.000    0.    0.    0. GS000 IR001   0.0
*FERTILIZERS        
   1981011 FE005 AP002    0.   50.    0.    0.    0.    0.   -99
   1981042 FE005 AP002    0.   50.    0.    0.    0.    0.   -99
*RESIDUES           
*CHEMICALS          
*TILLAGE            
*ENVIRONMENT        
*HARVEST            
   1983150 GS000     C   -99  100.    0.
*SOIL               
 CCYU820001  XXXX   LOSA LOSA   120.   ULTISOL, TYPIC PALEUDULT AT YURIMAGUAS-CIAT     
 YURIMAGUAS  PERU         -5.900   0.003 Loamy sand.                                       
 -99    0.15  11.5  0.65   75.  1.00  1.00 -99   -99   -99   -99  
    5.       0.060 0.190 0.440 0.950    0.  1.30 1.200   6.0  21.0 -99.0 0.120  4.40-99.00  3.50-99.00
   15.       0.060 0.205 0.440 0.820    0.  1.53 1.030   6.0  21.0 -99.0 0.120  4.40-99.00  3.50-99.00
   20.       0.060 0.210 0.440 0.700    0.  1.55 0.880   6.0  21.0 -99.0 0.120  4.40-99.00  3.50-99.00
   25.       0.060 0.200 0.410 0.630    0.  1.55 0.800  16.0  24.0 -99.0 0.120  4.60-99.00  3.70-99.00
   30.       0.060 0.200 0.410 0.580    0.  1.57 0.730  16.0  24.0 -99.0 0.120  4.60-99.00  3.70-99.00
   35.       0.060 0.200 0.410 0.520    0.  1.58 0.650  16.0  24.0 -99.0 0.120  4.60-99.00  3.70-99.00
   40.       0.060 0.200 0.410 0.470    0.  1.59 0.600  16.0  24.0 -99.0 0.120  4.60-99.00  3.70-99.00
   55.       0.060 0.200 0.410 0.330    0.  1.62 0.420  16.0  24.0 -99.0 0.080  4.60-99.00  3.70-99.00
   70.       0.060 0.200 0.410 0.330    0.  1.62 0.420  16.0  24.0 -99.0 0.080  4.60-99.00  3.70-99.00
   95.       0.059 0.200 0.410 0.150    0.  1.63 0.190  16.0  24.0 -99.0 0.050  4.60-99.00  3.70-99.00
  120.       0.059 0.200 0.410 0.150    0.  1.63 0.190  16.0  24.0 -99.0 0.050  4.60-99.00  3.70-99.00
                    
    5.-99.00 -99.0 -99.0 -99.0 -99.0 -99.0 -99.0 -99.0 -99.0 -99.0-99.00 -99.0 -99.0 -99.0 -99.0 -99.0  -99.  -99.
   15.-99.00 -99.0 -99.0 -99.0 -99.0 -99.0 -99.0 -99.0 -99.0 -99.0-99.00 -99.0 -99.0 -99.0 -99.0 -99.0  -99.  -99.
   20.-99.00 -99.0 -99.0 -99.0 -99.0 -99.0 -99.0 -99.0 -99.0 -99.0-99.00 -99.0 -99.0 -99.0 -99.0 -99.0  -99.  -99.
   25.-99.00 -99.0 -99.0 -99.0 -99.0 -99.0 -99.0 -99.0 -99.0 -99.0-99.00 -99.0 -99.0 -99.0 -99.0 -99.0  -99.  -99.
   30.-99.00 -99.0 -99.0 -99.0 -99.0 -99.0 -99.0 -99.0 -99.0 -99.0-99.00 -99.0 -99.0 -99.0 -99.0 -99.0  -99.  -99.
   35.-99.00 -99.0 -99.0 -99.0 -99.0 -99.0 -99.0 -99.0 -99.0 -99.0-99.00 -99.0 -99.0 -99.0 -99.0 -99.0  -99.  -99.
   40.-99.00 -99.0 -99.0 -99.0 -99.0 -99.0 -99.0 -99.0 -99.0 -99.0-99.00 -99.0 -99.0 -99.0 -99.0 -99.0  -99.  -99.
   55.-99.00 -99.0 -99.0 -99.0 -99.0 -99.0 -99.0 -99.0 -99.0 -99.0-99.00 -99.0 -99.0 -99.0 -99.0 -99.0  -99.  -99.
   70.-99.00 -99.0 -99.0 -99.0 -99.0 -99.0 -99.0 -99.0 -99.0 -99.0-99.00 -99.0 -99.0 -99.0 -99.0 -99.0  -99.  -99.
   95.-99.00 -99.0 -99.0 -99.0 -99.0 -99.0 -99.0 -99.0 -99.0 -99.0-99.00 -99.0 -99.0 -99.0 -99.0 -99.0  -99.  -99.
  120.-99.00 -99.0 -99.0 -99.0 -99.0 -99.0 -99.0 -99.0 -99.0 -99.0-99.00 -99.0 -99.0 -99.0 -99.0 -99.0  -99.  -99.
                    
    5.-99.00-99.00-99.00-99.00
   15.-99.00-99.00-99.00-99.00
   20.-99.00-99.00-99.00-99.00
   25.-99.00-99.00-99.00-99.00
   30.-99.00-99.00-99.00-99.00
   35.-99.00-99.00-99.00-99.00
   40.-99.00-99.00-99.00-99.00
   55.-99.00-99.00-99.00-99.00
   70.-99.00-99.00-99.00-99.00
   95.-99.00-99.00-99.00-99.00
  120.-99.00-99.00-99.00-99.00
*CULTIVAR           
CC0002 Brachiaria 2     BR0001 12.00 0.200 99.00 10.00 18.00 33.00 25.00 2.200 225.0   2.0  0.01 0.002 18.00  2.05 20.00  78.0 0.398 0.500
