*MODEL INPUT FILE            B     1     1     1   999     0
*FILES              
MODEL          PIALO048
FILEX          UHKN8901.PIX                                                                                 
FILEA          UHKN8901.PIA                                                                                 
FILET          UHKN8901.PIT                                                                                 
SPECIES        PIALO048.SPE C:\DSSAT48\GENOTYPE\                                                            
ECOTYPE        PIALO048.ECO C:\DSSAT48\GENOTYPE\                                                            
CULTIVAR       PIALO048.CUL C:\DSSAT48\GENOTYPE\                                                            
PESTS          PIALO048.PST C:\DSSAT48\PEST\                                                                
SOILS          SOIL.SOL     C:\DSSAT48\SOIL\                                                                
WEATHERW       UHKN8903.WTH C:\DSSAT48\Weather\                                                             
OUTPUT         OVERVIEW
*SIMULATION CONTROL 
                   1     1     S 1989160  2150 POPULATION, KUNIA, UH EX 
                   Y     Y     N     N     N     N     Y     N     M
                   M     M     E     R     S     C     R     1     G     R     1     D     0
                   R     R     R     R     M
                   N     Y     Y     1     Y     N     Y     Y     N     N     Y     N     Y
!AUTOMATIC MANAGEM  
                   -99     -99   40.  100.   30.   40.   10.
                 30.   50.  100. GS000 IR001  10.0 1.000
                 30.   50.   25. FE001 GS000
                100.     1   20.
                     0     -99  100.    0.
*EXP.DETAILS        
  1UHKN8901 PI POPULATION, KUNIA, UH EXP.1989-6                            
*TREATMENTS         
  1 1 0 0 Plant Population 2.61 p/m
*CULTIVARS          
   PI IB0066 SC-F153         
*FIELDS             
   UHKN0001 UHKN8903   0.0    0. DR000    0. 100.0 00000 -99    110. IBPI910013-99.00 -99.0
      0.0000000000    0.0000000000     0.000               1.0  100.   1.0   0.0   -99   -99
*INITIAL CONDITIONS 
   PI    1989160   200     0  1.00  1.00 -99.0  2000  0.53  0.00    0.   30.
      5. 0.260  3.40  3.60
     15. 0.260  2.80  2.80
     30. 0.300  1.90  1.40
     45. 0.370  1.10 0.700
     60. 0.337 0.967 0.567
     90. 0.300 0.567 0.500
    110. 0.320 0.100 0.400
*PLANTING DETAILS   
   1989166     -99   2.6   2.6     S     R   53.    0.   5.0  595.  -99. -99.0 -99.0   0.0     0   0.0     0     0
*IRRIGATION         
   1.000   30.   75.  -99. GS000 IR001   0.0
   1989337 IR005  43.0
   1989339 IR005  22.0
   1989341 IR005  18.0
   1989350 IR005   8.0
   1989355 IR005  11.0
   1989357 IR005   6.0
   1989364 IR005   6.0
   1990006 IR005   6.0
   1990009 IR005   6.0
   1990013 IR005   5.0
   1990019 IR005   5.0
   1990020 IR005   5.0
   1990026 IR005  19.0
   1990041 IR005   9.0
   1990043 IR005   9.0
   1990055 IR005  15.0
   1990059 IR005  10.0
   1990069 IR005  17.0
   1990073 IR005  13.0
   1990075 IR005  14.0
   1990078 IR005  15.0
   1990082 IR005  12.0
   1990084 IR005  18.0
   1990088 IR005  12.0
*FERTILIZERS        
*RESIDUES           
*CHEMICALS          
   1990260 CH102  1.00 AP006 -99.0   -99  -99                                     
*TILLAGE            
*ENVIRONMENT        
*HARVEST            
*SOIL               
 IBPI910013  IBSNAT      -99    110.   Waipio                                          
 Waipio,HI   USA          -0.009  -0.099 Clayey, kaolinitic, isohyperth, Tropeptic Eutrusto
 -99    0.14   5.0  0.60   60.  1.00  1.00 IB001 IB001 IB001 -99  
    5.       0.220 0.350 0.550 1.000  -99.  1.00 2.270 -99.0 -99.0 -99.0  -9.0  6.30-99.00-99.00-99.00
   15.       0.230 0.350 0.550 1.000  -99.  1.00 2.270 -99.0 -99.0 -99.0  -9.0  6.30-99.00-99.00-99.00
   30.       0.240 0.350 0.550 0.800  -99.  1.05 1.100 -99.0 -99.0 -99.0  -9.0  5.80-99.00-99.00-99.00
   45.       0.250 0.370 0.480 0.400  -99.  1.17 1.410 -99.0 -99.0 -99.0  -9.0  5.80-99.00-99.00-99.00
   60.       0.257 0.377 0.467 0.267  -99.  1.20 0.863 -99.0 -99.0 -99.0  -9.0  5.93-99.00-99.00-99.00
   90.       0.253 0.380 0.460 0.100  -99.  1.22 0.437 -99.0 -99.0 -99.0  -9.0  6.00-99.00-99.00-99.00
  110.       0.260 0.400 0.480 0.020  -99.  1.17 0.270 -99.0 -99.0 -99.0  -9.0  6.00-99.00-99.00-99.00
                    
    5.-99.00 -99.0 -99.0 -99.0 -99.0 -99.0 -99.0 -99.0 -99.0 -99.0-99.00 -99.0 -99.0 -99.0 -99.0 -99.0  -99.  -99.
   15.-99.00 -99.0 -99.0 -99.0 -99.0 -99.0 -99.0 -99.0 -99.0 -99.0-99.00 -99.0 -99.0 -99.0 -99.0 -99.0  -99.  -99.
   30.-99.00 -99.0 -99.0 -99.0 -99.0 -99.0 -99.0 -99.0 -99.0 -99.0-99.00 -99.0 -99.0 -99.0 -99.0 -99.0  -99.  -99.
   45.-99.00 -99.0 -99.0 -99.0 -99.0 -99.0 -99.0 -99.0 -99.0 -99.0-99.00 -99.0 -99.0 -99.0 -99.0 -99.0  -99.  -99.
   60.-99.00 -99.0 -99.0 -99.0 -99.0 -99.0 -99.0 -99.0 -99.0 -99.0-99.00 -99.0 -99.0 -99.0 -99.0 -99.0  -99.  -99.
   90.-99.00 -99.0 -99.0 -99.0 -99.0 -99.0 -99.0 -99.0 -99.0 -99.0-99.00 -99.0 -99.0 -99.0 -99.0 -99.0  -99.  -99.
  110.-99.00 -99.0 -99.0 -99.0 -99.0 -99.0 -99.0 -99.0 -99.0 -99.0-99.00 -99.0 -99.0 -99.0 -99.0 -99.0  -99.  -99.
                    
    5.-99.00-99.00-99.00-99.00
   15.-99.00-99.00-99.00-99.00
   30.-99.00-99.00-99.00-99.00
   45.-99.00-99.00-99.00-99.00
   60.-99.00-99.00-99.00-99.00
   90.-99.00-99.00-99.00-99.00
  110.-99.00-99.00-99.00-99.00
*CULTIVAR           
IB0066 SC-F153          IB0001   60.0  629.  381. 2640.  400.  60.0  200.  14.0  40.0
