*MODEL INPUT FILE            B     1     1     1   999     0
*FILES              
MODEL          BSCER048
FILEX          UHKL1801.BSX                                                                                 
FILEA          UHKL1801.BSA                                                                                 
FILET          UHKL1801.BST                                                                                 
SPECIES        BSCER048.SPE C:\DSSAT48\GENOTYPE\                                                            
ECOTYPE        BSCER048.ECO C:\DSSAT48\GENOTYPE\                                                            
CULTIVAR       BSCER048.CUL C:\DSSAT48\GENOTYPE\                                                            
PESTS          BSCER048.PST C:\DSSAT48\PEST\                                                                
SOILS          UH.SOL       C:\DSSAT48\SOIL\                                                                
WEATHERW       UHIH1801.WTH C:\DSSAT48\Weather\                                                             
OUTPUT         OVERVIEW
*SIMULATION CONTROL 
                   1     1     S 2018104  2150 DEFAULT SIMULATION CONTR 
                   Y     Y     N     N     N     Y     N     Y     M
                   M     M     E     R     S     C     R     1     G     R     2     D     0
                   R     R     R     R     D
                   N     Y     Y     1     Y     Y     Y     Y     Y     Y     Y     N     Y
!AUTOMATIC MANAGEM  
                   -99     -99   40.  100.   30.   40.   10.
                 30.   50.  100. GS000 IR001  10.0 1.000
                 30.   50.   25. FE001 GS000
                100.     1   20.
                     0     -99  100.    0.
*EXP.DETAILS        
  1UHKL1801 BS U OF HOHENHEIM, 2018, LEAT SPOT AND FUNGICIDE LEVEL         
*TREATMENTS         
  1 1 1 0 0 %  inoculum            
*CULTIVARS          
   BS IH0001 BTS940          
*FIELDS             
   IHKL1801 UHIH1801   0.0  -99. DR000  -99. 100.0   -99 SIL    120. UHIH150003-99.00 -99.0
    -99.0000000000  -99.0000000000   -99.000               1.0  100.   1.0 -99.0   -99   -99
*INITIAL CONDITIONS 
   BS    2018104     0     0  1.00  1.00 200.0    20  1.00  0.00  100.    0.
      5. 0.380 0.300  2.40
     15. 0.380 0.300  2.40
     30. 0.380 0.300  2.40
     45. 0.380 0.300  2.40
     60. 0.380 0.300  2.40
     90. 0.380 0.300  2.40
    120. 0.380 0.300  2.40
    150. 0.380 0.010 0.010
    180. 0.380 0.010 0.010
*PLANTING DETAILS   
   2018104 2018111  10.7   7.5     S     R   50.  -99.   3.0  -99.  -99. -99.0 -99.0 -99.0
*IRRIGATION         
   1.000    0.    0.    0. GS000 IR001   0.0
*FERTILIZERS        
   2018108 FE005 AP001   10.  140.  -99.  -99.  -99.  -99.   -99
*RESIDUES           
*CHEMICALS          
*TILLAGE            
*ENVIRONMENT        
*HARVEST            
       169 GS000     H   -99  100.    0.
*SOIL               
 UHIH150003  -99         SIL    120.   Braunerde                                       
 Ihinger Hof Germany      48.740   8.928 Toniger Schluff                                   
 BN     0.13   6.0  0.60   73.  1.00  1.00 IB001 IB001 IB001 -99  
    5.       0.278 0.380 0.536 1.000 0.150  1.09 3.879  29.2  68.7 -99.0  -9.0  7.00-99.00-99.00-99.00
   15.       0.278 0.380 0.536 1.000 0.150  1.09 3.879  29.2  68.7 -99.0  -9.0  7.00-99.00-99.00-99.00
   30.       0.278 0.380 0.536 1.000 0.150  1.09 3.879  29.2  68.7 -99.0  -9.0  7.00-99.00-99.00-99.00
   45.       0.297 0.380 0.536 0.326 0.150  1.09 3.834  33.4  65.1 -99.0  -9.0  7.00-99.00-99.00-99.00
   60.       0.297 0.380 0.536 0.326 0.150  1.09 3.834  33.4  65.1 -99.0  -9.0  7.00-99.00-99.00-99.00
   90.       0.272 0.380 0.530 0.178 0.150  1.11 3.584  29.7  68.6 -99.0  -9.0  7.00-99.00-99.00-99.00
  120.       0.272 0.380 0.530 0.178 0.150  1.11 3.584  29.7  68.6 -99.0  -9.0  7.00-99.00-99.00-99.00
  150.       0.272 0.380 0.530 0.178 0.150  1.11 3.584  29.7  68.6 -99.0  -9.0  7.00-99.00-99.00-99.00
  180.       0.272 0.380 0.530 0.178 0.150  1.11 3.584  29.7  68.6 -99.0  -9.0  7.00-99.00-99.00-99.00
                    
    5.-99.00 -99.0 -99.0 -99.0 -99.0 -99.0 -99.0 -99.0 -99.0 -99.0-99.00 -99.0 -99.0 -99.0 -99.0 -99.0  -99.  -99.
   15.-99.00 -99.0 -99.0 -99.0 -99.0 -99.0 -99.0 -99.0 -99.0 -99.0-99.00 -99.0 -99.0 -99.0 -99.0 -99.0  -99.  -99.
   30.-99.00 -99.0 -99.0 -99.0 -99.0 -99.0 -99.0 -99.0 -99.0 -99.0-99.00 -99.0 -99.0 -99.0 -99.0 -99.0  -99.  -99.
   45.-99.00 -99.0 -99.0 -99.0 -99.0 -99.0 -99.0 -99.0 -99.0 -99.0-99.00 -99.0 -99.0 -99.0 -99.0 -99.0  -99.  -99.
   60.-99.00 -99.0 -99.0 -99.0 -99.0 -99.0 -99.0 -99.0 -99.0 -99.0-99.00 -99.0 -99.0 -99.0 -99.0 -99.0  -99.  -99.
   90.-99.00 -99.0 -99.0 -99.0 -99.0 -99.0 -99.0 -99.0 -99.0 -99.0-99.00 -99.0 -99.0 -99.0 -99.0 -99.0  -99.  -99.
  120.-99.00 -99.0 -99.0 -99.0 -99.0 -99.0 -99.0 -99.0 -99.0 -99.0-99.00 -99.0 -99.0 -99.0 -99.0 -99.0  -99.  -99.
  150.-99.00 -99.0 -99.0 -99.0 -99.0 -99.0 -99.0 -99.0 -99.0 -99.0-99.00 -99.0 -99.0 -99.0 -99.0 -99.0  -99.  -99.
  180.-99.00 -99.0 -99.0 -99.0 -99.0 -99.0 -99.0 -99.0 -99.0 -99.0-99.00 -99.0 -99.0 -99.0 -99.0 -99.0  -99.  -99.
                    
    5.-99.00-99.00-99.00-99.00
   15.-99.00-99.00-99.00-99.00
   30.-99.00-99.00-99.00-99.00
   45.-99.00-99.00-99.00-99.00
   60.-99.00-99.00-99.00-99.00
   90.-99.00-99.00-99.00-99.00
  120.-99.00-99.00-99.00-99.00
  150.-99.00-99.00-99.00-99.00
  180.-99.00-99.00-99.00-99.00
*CULTIVAR           
IH0001 BTS940           IHSTUT  760.0 0.000 700.0 420.0 27.50 43.00  0.00  0.00  0.00
