*MODEL INPUT FILE            B     1     1     1   999     0
*FILES              
MODEL          CRGRO048
FILEX          GHWA0305.PNX                                                                                 
FILEA          GHWA0305.PNA                                                                                 
FILET          GHWA0305.PNT                                                                                 
SPECIES        PNGRO048.SPE C:\DSSAT48\GENOTYPE\                                                            
ECOTYPE        PNGRO048.ECO C:\DSSAT48\GENOTYPE\                                                            
CULTIVAR       PNGRO048.CUL C:\DSSAT48\GENOTYPE\                                                            
PESTS          PNGRO048.PST C:\DSSAT48\PEST\                                                                
SOILS          GH.SOL       C:\DSSAT48\SOIL\                                                                
WEATHERW       GHWA0301.WTH C:\DSSAT48\Weather\                                                             
OUTPUT         OVERVIEW
*SIMULATION CONTROL 
                   1     1     S 2003152  2150 DISEASE                  
                   Y     Y     Y     Y     N     Y     N     N     M
                   M     M     E     R     S     L     R     1     P     R     2     D     0
                   R     A     R     N     M
                   N     Y     Y     1     Y     Y     Y     Y     Y     Y     Y     N     Y
!AUTOMATIC MANAGEM  
                   -99     -99   40.  100.   30.   40.   10.
                 30.   50.  100. GS000 IR001  10.0 1.000
                 30.   50.   25. FE001 GS000
                100.     1   20.
                     0     -99  100.    0.
*EXP.DETAILS        
  1GHWA0305 PN 2003 FUNGICIDE X PHOSPHORUS EXPT GHANA                      
*TREATMENTS         
  1 1 1 0 P0F0 dis"on" PCLA,PDLA   
*CULTIVARS          
   PN GH0001 CHINESE TMV2 TAM
*FIELDS             
   BAMAHU03 GHWA0301   0.0  -99.   -99  -99. 100.0   -99 SL      90. GHWA030001-99.00 -99.0
     -2.0000000000    9.9449996948   380.000            1024.0 3200.   1.0 -99.0   -99   -99
*INITIAL CONDITIONS 
   PN    2003170   500     0  1.00  1.00 -99.0  1000  1.50  0.25  100.    0.
      5. 0.200 0.010 0.010
     15. 0.220 0.010 0.010
     30. 0.220 0.010 0.010
     45. 0.230 0.010 0.010
     60. 0.230 0.010 0.010
     75. 0.230 0.010 0.010
     90. 0.230 0.010 0.010
*PLANTING DETAILS   
   2003170 2003177  20.0  20.0     S     R   50.  -99.   5.0  -99.  -99. -99.0 -99.0 -99.0
*IRRIGATION         
   1.000    0.    0.    0. GS000 IR001   0.0
*FERTILIZERS        
*RESIDUES           
*CHEMICALS          
*TILLAGE            
*ENVIRONMENT        
*HARVEST            
      3266 GS011     H     A  100.    0.
*SOIL               
 GHWA030001  -99         SL      90. BAMAHU                                            
 WA          GH            0.010  -0.002 -99                                               
 BN     0.13   6.0  0.40   61.  1.00  0.88 IB001 SA002 IB001 -99  
    5.       0.072 0.131 0.398 1.000  6.11  1.45 0.380  10.2   9.0   6.9 0.060  6.20-99.00  3.50-99.00
   15.       0.083 0.143 0.386 1.000  2.59  1.45 0.380  11.2   9.0   9.7 0.060  6.20-99.00  3.50-99.00
   30.       0.073 0.126 0.333 0.638  6.11  1.55 0.340  10.2   8.0  14.9 0.060  6.50-99.00  3.50-99.00
   45.       0.108 0.162 0.335 0.472  2.59  1.55 0.340  18.2   6.0  14.4 0.050  6.40-99.00  3.40-99.00
   60.       0.107 0.160 0.289 0.350  2.59  1.65 0.340  19.2   7.0  18.8 0.050  6.40-99.00  3.20-99.00
   75.       0.126 0.183 0.289 0.259 0.430  1.65 0.320  24.2   7.9  18.8 0.040  6.50-99.00  3.20-99.00
   90.       0.101 0.141 0.171 0.192 0.430  1.65 0.320  34.8  11.4  51.8 0.040  6.50-99.00  3.20-99.00
                    
    5.  3.35 -99.0 -99.0 -99.0 -99.0 -99.0 -99.0 -99.0 -99.0 -99.0  0.10 -99.0 -99.0 -99.0 -99.0 -99.0  -99.  -99.
   15.  3.53 -99.0 -99.0 -99.0 -99.0 -99.0 -99.0 -99.0 -99.0 -99.0  0.10 -99.0 -99.0 -99.0 -99.0 -99.0  -99.  -99.
   30.  3.18 -99.0 -99.0 -99.0 -99.0 -99.0 -99.0 -99.0 -99.0 -99.0  0.10 -99.0 -99.0 -99.0 -99.0 -99.0  -99.  -99.
   45.  2.65 -99.0 -99.0 -99.0 -99.0 -99.0 -99.0 -99.0 -99.0 -99.0  0.10 -99.0 -99.0 -99.0 -99.0 -99.0  -99.  -99.
   60.  2.84 -99.0 -99.0 -99.0 -99.0 -99.0 -99.0 -99.0 -99.0 -99.0  0.10 -99.0 -99.0 -99.0 -99.0 -99.0  -99.  -99.
   75.  0.86 -99.0 -99.0 -99.0 -99.0 -99.0 -99.0 -99.0 -99.0 -99.0  0.10 -99.0 -99.0 -99.0 -99.0 -99.0  -99.  -99.
   90.  0.69 -99.0 -99.0 -99.0 -99.0 -99.0 -99.0 -99.0 -99.0 -99.0  0.10 -99.0 -99.0 -99.0 -99.0 -99.0  -99.  -99.
                    
    5.-99.00-99.00-99.00-99.00
   15.-99.00-99.00-99.00-99.00
   30.-99.00-99.00-99.00-99.00
   45.-99.00-99.00-99.00-99.00
   60.-99.00-99.00-99.00-99.00
   75.-99.00-99.00-99.00-99.00
   90.-99.00-99.00-99.00-99.00
*CULTIVAR           
GH0001 CHINESE TMV2 TAM PN0019 11.84 0.000 18.00  7.00 17.50 53.00 73.00 1.200 270.0  20.0  0.72 0.360 29.00  1.65 15.00  74.5 0.270 0.510
