*MODEL INPUT FILE            B     1     1     1   999     0
*FILES              
MODEL          CRGRO048
FILEX          ITBP8502.CHX                                                                                 
FILEA          ITBP8502.CHA                                                                                 
FILET          ITBP8502.CHT                                                                                 
SPECIES        CHGRO048.SPE C:\DSSAT48\GENOTYPE\                                                            
ECOTYPE        CHGRO048.ECO C:\DSSAT48\GENOTYPE\                                                            
CULTIVAR       CHGRO048.CUL C:\DSSAT48\GENOTYPE\                                                            
PESTS          CHGRO048.PST C:\DSSAT48\PEST\                                                                
SOILS          IC.SOL       C:\DSSAT48\SOIL\                                                                
WEATHERW       ITHY8501.WTH C:\DSSAT48\Weather\                                                             
OUTPUT         OVERVIEW
*SIMULATION CONTROL 
                   1     1     S 1985310  2150 CHICKPEA YIELD RESPONSE  
                   Y     Y     Y     N     N     N     N     Y     M
                   M     M     E     R     S     L     R     1     G     R     1     D     0
                   R     R     R     N     M
                   N     Y     Y     1     Y     Y     Y     Y     N     N     Y     N     N
!AUTOMATIC MANAGEM  
                   -99     -99   40.  100.   30.   40.   10.
                 30.   50.  100. GS000 IR001  10.0 1.000
                 30.   50.   25. FE001 GS000
                100.     1   20.
                     0     -99  100.    0.
*EXP.DETAILS        
  1ITBP8502 CH 1985 ANNIGERI LINE SOURCE IRRIGATION                        
*TREATMENTS         
  1 1 0 0 G1 IRRIGATION;D1  DISTANC
*CULTIVARS          
   CH IB0001 ANNIGERI v48cali
*FIELDS             
   ITBP0001 ITHY8501   0.0    0. DR000    0. 100.0 00000 -99    180. ICCH910006-99.00 -99.0
      0.0000000000    0.0000000000     0.000               1.0  100.   1.0   0.0   -99   -99
*INITIAL CONDITIONS 
   PN    1985310   100     0  1.00  1.00 -99.0  1000  0.53  0.00    0.   15.
      5. 0.305   0.0   0.0
     15. 0.331   0.0   0.0
     30. 0.302   0.0   0.0
     45. 0.280   0.0   0.0
     60. 0.272   0.0   0.0
     90. 0.224   0.0   0.0
    120. 0.179   0.0   0.0
    150. 0.164   0.0   0.0
    180. 0.164   0.0   0.0
*PLANTING DETAILS   
   1985311     -99  30.0  30.0     S     R   30.    0.   5.0  -99.  -99. -99.0 -99.0   0.0
*IRRIGATION         
   1.000   30.   75.  -99. GS000 IR001  10.0
   1985312 IR001  25.0
   1985313 IR001  10.0
   1985331 IR001  10.0
   1985339 IR001  37.0
   1985361 IR001  51.0
   1986008 IR001  27.0
   1986029 IR001  52.0
*FERTILIZERS        
   1985314 FE005 AP009   10.   20.    0.    0.    0.    0.   -99
*RESIDUES           
*CHEMICALS          
*TILLAGE            
*ENVIRONMENT        
*HARVEST            
*SOIL               
 ICCH910006  IBSNAT      -99    180. VERY FINE MONTMORILLONITIC ISOHYPERTHERMIC        
 Patancheru  India        -0.099  -0.099 Vertisol                                          
 -99    0.13   6.0  0.70   85.  1.00  0.90 SA001 SA001 SA001 -99  
    5.       0.265 0.337 0.395 1.000  -99.  1.50 0.730 -99.0 -99.0 -99.0  -9.0  8.80-99.00-99.00  0.00
   15.       0.200 0.337 0.395 1.000  -99.  1.50 0.730 -99.0 -99.0 -99.0  -9.0  8.80-99.00-99.00  0.00
   30.       0.173 0.318 0.403 0.759  -99.  1.51 0.603 -99.0 -99.0 -99.0  -9.0  9.07-99.00-99.00  0.00
   45.       0.156 0.309 0.410 0.451  -99.  1.46 0.517 -99.0 -99.0 -99.0  -9.0  9.27-99.00-99.00  0.00
   60.       0.157 0.302 0.416 0.370  -99.  1.37 0.470 -99.0 -99.0 -99.0  -9.0  9.40-99.00-99.00  0.00
   90.       0.165 0.277 0.424 0.254  -99.  1.38 0.390 -99.0 -99.0 -99.0  -9.0  9.40-99.00-99.00  0.00
  120.       0.165 0.224 0.451 0.153  -99.  1.40 0.280 -99.0 -99.0 -99.0  -9.0  9.40-99.00-99.00  0.00
  150.       0.160 0.222 0.446 0.085  -99.  1.40 0.260 -99.0 -99.0 -99.0  -9.0  9.40-99.00-99.00  0.00
  180.       0.164 0.222 0.443 0.042  -99.  1.40 0.250 -99.0 -99.0 -99.0  -9.0  9.40-99.00-99.00  0.00
                    
    5.-99.00 -99.0 -99.0 -99.0 -99.0 -99.0 -99.0 -99.0 -99.0 -99.0-99.00 -99.0 -99.0 -99.0 -99.0 -99.0  -99.  -99.
   15.-99.00 -99.0 -99.0 -99.0 -99.0 -99.0 -99.0 -99.0 -99.0 -99.0-99.00 -99.0 -99.0 -99.0 -99.0 -99.0  -99.  -99.
   30.-99.00 -99.0 -99.0 -99.0 -99.0 -99.0 -99.0 -99.0 -99.0 -99.0-99.00 -99.0 -99.0 -99.0 -99.0 -99.0  -99.  -99.
   45.-99.00 -99.0 -99.0 -99.0 -99.0 -99.0 -99.0 -99.0 -99.0 -99.0-99.00 -99.0 -99.0 -99.0 -99.0 -99.0  -99.  -99.
   60.-99.00 -99.0 -99.0 -99.0 -99.0 -99.0 -99.0 -99.0 -99.0 -99.0-99.00 -99.0 -99.0 -99.0 -99.0 -99.0  -99.  -99.
   90.-99.00 -99.0 -99.0 -99.0 -99.0 -99.0 -99.0 -99.0 -99.0 -99.0-99.00 -99.0 -99.0 -99.0 -99.0 -99.0  -99.  -99.
  120.-99.00 -99.0 -99.0 -99.0 -99.0 -99.0 -99.0 -99.0 -99.0 -99.0-99.00 -99.0 -99.0 -99.0 -99.0 -99.0  -99.  -99.
  150.-99.00 -99.0 -99.0 -99.0 -99.0 -99.0 -99.0 -99.0 -99.0 -99.0-99.00 -99.0 -99.0 -99.0 -99.0 -99.0  -99.  -99.
  180.-99.00 -99.0 -99.0 -99.0 -99.0 -99.0 -99.0 -99.0 -99.0 -99.0-99.00 -99.0 -99.0 -99.0 -99.0 -99.0  -99.  -99.
                    
    5.-99.00-99.00-99.00-99.00
   15.-99.00-99.00-99.00-99.00
   30.-99.00-99.00-99.00-99.00
   45.-99.00-99.00-99.00-99.00
   60.-99.00-99.00-99.00-99.00
   90.-99.00-99.00-99.00-99.00
  120.-99.00-99.00-99.00-99.00
  150.-99.00-99.00-99.00-99.00
  180.-99.00-99.00-99.00-99.00
*CULTIVAR           
IB0001 ANNIGERI v48cali DESI   11.00-0.143 32.00  7.50 18.50 31.00 42.00 0.950 200.0  10.0  0.95 0.230 22.00  1.20 17.00  82.0 0.216 0.048
