*MODEL INPUT FILE            B     1     1     1   999     0
*FILES              
MODEL          CRGRO048
FILEX          TRKO1501.SUX                                                                                 
FILEA          TRKO1501.SUA                                                                                 
FILET          TRKO1501.SUT                                                                                 
SPECIES        SUGRO048.SPE C:\DSSAT48\GENOTYPE\                                                            
ECOTYPE        SUGRO048.ECO C:\DSSAT48\GENOTYPE\                                                            
CULTIVAR       SUGRO048.CUL C:\DSSAT48\GENOTYPE\                                                            
PESTS          SUGRO048.PST C:\DSSAT48\PEST\                                                                
SOILS          TR.SOL       C:\DSSAT48\SOIL\                                                                
WEATHERW       TRKO1501.WTH C:\DSSAT48\Weather\                                                             
OUTPUT         OVERVIEW
*SIMULATION CONTROL 
                   1     1     S 2015125  2150 Simulation Option        
                   Y     Y     N     N     N     N     N     Y     M
                   M     M     E     R     S     L     R     1     G     R     2     D     0
                   R     R     R     R     D
                   N     Y     A     1     Y     Y     Y     Y     Y     Y     A     Y     Y
!AUTOMATIC MANAGEM  
                   -99     -99   40.  100.   30.   40.   10.
                 30.  100.  100. GS000 IR005  10.0 1.000
                 30.   50.   25. FE001 GS000
                100.     1   20.
                     0     -99  100.    0.
*EXP.DETAILS        
  1TRKO1501 SU KONYA SUNFLOWER EXPERIMENT (2015)                           
*TREATMENTS         
  1 1 1 0 Rainfed                  
*CULTIVARS          
   SU IB0001 Ekllor          
*FIELDS             
   TRKO1501 TRKO1501   0.0  -99. DR000  -99. 100.0   -99 C      -99. TRKON20150-99.00 -99.0
     37.7999992371   32.2999992371  1072.000               1.0  100.   1.0 -99.0   -99   -99
*INITIAL CONDITIONS 
   SU    2015125     0     0  1.00  1.00 -99.0     0  0.00  0.00  100.    0.
      5. 0.330 0.200  1.80
     15. 0.330 0.200  1.80
     30. 0.330 0.200  1.80
     45. 0.371 0.200  1.80
     60. 0.371 0.200  1.80
     90. 0.396 0.200  1.80
    120. 0.414 0.200  1.80
    200. 0.422 0.200  1.80
*PLANTING DETAILS   
   2015125 2015140   5.7   5.7     S     R   70.  -99.   4.0  -99.  -99. -99.0 -99.0 -99.0
*IRRIGATION         
   1.000   30.   50.  100. GS000 IR001  10.0
   2015168 IR005  31.8
   2015177 IR005  33.7
*FERTILIZERS        
   2015125 FE006 AP002   15.   36.   40.  -99.  -99.  -99.   -99
   2015125 FE001 AP004   15.   99.  -99.  -99.  -99.  -99.   -99
   2015167 FE001 AP002   15.   16.  -99.  -99.  -99.  -99.   -99
   2015167 FE005 AP002   15.   23.  -99.  -99.  -99.  -99.   -99
*RESIDUES           
*CHEMICALS          
*TILLAGE            
*ENVIRONMENT        
*HARVEST            
       136 GS006     H   -99  100.    0.
*SOIL               
 TRKON20150  -99         C      -99.   Konya-Turkey !decr LL by 0.04, kjb,4/14/22, LL&D
 Konya       Turkey       37.800  32.510 Clay                                              
 BN     0.13   6.0  0.40   61.  1.00  0.88 IB001 IB001 IB001 -99  
    5.       0.177 0.380 0.479 1.000 0.800  1.42 0.440  59.3  21.1 -99.0  -9.0  7.60-99.00-99.00-99.00
   15.       0.177 0.380 0.479 1.000 0.800  1.42 0.440  59.3  21.1 -99.0  -9.0  7.60-99.00-99.00-99.00
   30.       0.177 0.380 0.479 1.000 0.800  1.42 0.440  59.3  21.1 -99.0  -9.0  7.60-99.00-99.00-99.00
   45.       0.189 0.398 0.498 0.750 0.800  1.47 0.300  61.7  21.1 -99.0  -9.0  7.90-99.00-99.00-99.00
   60.       0.189 0.398 0.498 0.750 0.800  1.47 0.300  61.7  21.1 -99.0  -9.0  7.90-99.00-99.00-99.00
   90.       0.204 0.414 0.526 0.400 0.800  1.54 0.190  63.8  21.1 -99.0  -9.0  7.90-99.00-99.00-99.00
  120.       0.212 0.414 0.516 0.300 0.800  1.46 0.120  64.0  21.0 -99.0  -9.0  7.90-99.00-99.00-99.00
  200.       0.212 0.414 0.516 0.110 0.800  1.46 0.090  64.0  21.0 -99.0  -9.0  7.90-99.00-99.00-99.00
                    
    5.-99.00 -99.0 -99.0 -99.0 -99.0 -99.0 -99.0 -99.0 -99.0 -99.0-99.00 -99.0 -99.0 -99.0 -99.0 -99.0  -99.  -99.
   15.-99.00 -99.0 -99.0 -99.0 -99.0 -99.0 -99.0 -99.0 -99.0 -99.0-99.00 -99.0 -99.0 -99.0 -99.0 -99.0  -99.  -99.
   30.-99.00 -99.0 -99.0 -99.0 -99.0 -99.0 -99.0 -99.0 -99.0 -99.0-99.00 -99.0 -99.0 -99.0 -99.0 -99.0  -99.  -99.
   45.-99.00 -99.0 -99.0 -99.0 -99.0 -99.0 -99.0 -99.0 -99.0 -99.0-99.00 -99.0 -99.0 -99.0 -99.0 -99.0  -99.  -99.
   60.-99.00 -99.0 -99.0 -99.0 -99.0 -99.0 -99.0 -99.0 -99.0 -99.0-99.00 -99.0 -99.0 -99.0 -99.0 -99.0  -99.  -99.
   90.-99.00 -99.0 -99.0 -99.0 -99.0 -99.0 -99.0 -99.0 -99.0 -99.0-99.00 -99.0 -99.0 -99.0 -99.0 -99.0  -99.  -99.
  120.-99.00 -99.0 -99.0 -99.0 -99.0 -99.0 -99.0 -99.0 -99.0 -99.0-99.00 -99.0 -99.0 -99.0 -99.0 -99.0  -99.  -99.
  200.-99.00 -99.0 -99.0 -99.0 -99.0 -99.0 -99.0 -99.0 -99.0 -99.0-99.00 -99.0 -99.0 -99.0 -99.0 -99.0  -99.  -99.
                    
    5.-99.00-99.00-99.00-99.00
   15.-99.00-99.00-99.00-99.00
   30.-99.00-99.00-99.00-99.00
   45.-99.00-99.00-99.00-99.00
   60.-99.00-99.00-99.00-99.00
   90.-99.00-99.00-99.00-99.00
  120.-99.00-99.00-99.00-99.00
  200.-99.00-99.00-99.00-99.00
*CULTIVAR           
IB0001 Ekllor           SU0703 15.00-0.086 40.40  7.40 10.50 43.60 13.79 1.800 155.0 180.0  0.78 0.070 28.00  2.20  4.80  71.2 0.140 0.500
