*MODEL INPUT FILE            B     1     1     3   999     0
*FILES              
MODEL          CRGRO048
FILEX          UFGA9601.TMX                                                                                 
FILEA          UFGA9601.TMA                                                                                 
FILET          UFGA9601.TMT                                                                                 
SPECIES        TMGRO048.SPE C:\DSSAT48\GENOTYPE\                                                            
ECOTYPE        TMGRO048.ECO C:\DSSAT48\GENOTYPE\                                                            
CULTIVAR       TMGRO048.CUL C:\DSSAT48\GENOTYPE\                                                            
PESTS          TMGRO048.PST C:\DSSAT48\PEST\                                                                
SOILS          SOIL.SOL     C:\DSSAT48\SOIL\                                                                
WEATHERW       UFGA9601.WTH C:\DSSAT48\Weather\                                                             
OUTPUT         OVERVIEW
*SIMULATION CONTROL 
                   1     1     S 1996061  2150 POTENTIAL YIELD          
                   N     N     N     N     N     N     N     N     M
                   M     M     E     R     S     L     R     1     G     R     2     D     0
                   R     A     R     N     R
                   N     Y     Y     1     Y     Y     Y     Y     N     N     Y     N     N
!AUTOMATIC MANAGEM  
                   -99     -99   40.  100.   30.   45.   40.
                 30.   80.  100. GS000 SI005   5.0 1.000
                200.   50.   25. SI001 SI001
                100.    60   20.
                   160     -99   75.    0.
*EXP.DETAILS        
  1UFGA9601 TM SPRING 1996,AGRISET,N-RATE,DRIP-IRR                         
*TREATMENTS         
  3 1 1 1 96-N=200 N-B "off" A.I.  
*CULTIVARS          
   TM TM0005 Agriset 761 10' 
*FIELDS             
   UFGA0003 UFGA9601   0.0    0. DR000  -99. 100.0 00000 SA     201. UFGA950003-99.00 -99.0
    -99.0000000000  -99.0000000000   -99.000               1.0  100.   1.0 -99.0   -99   -99
*INITIAL CONDITIONS 
   FA    1996061     1     0  1.00  1.00 -99.0   -99 -9.00 -9.00  -99.  -99.
      5. 0.161   0.0   0.0
     15. 0.161   0.0   0.0
     24. 0.104   0.0   0.0
     33. 0.104   0.0   0.0
     47. 0.113   0.0   0.0
     61. 0.113   0.0   0.0
     75. 0.113   0.0   0.0
     89. 0.113   0.0   0.0
    118. 0.080   0.0   0.0
    147. 0.080   0.0   0.0
    157. 0.101   0.0   0.0
    175. 0.196   0.0   0.0
    203. 0.248   0.0   0.0
*PLANTING DETAILS   
   1996074 1996074   1.2   1.2     T     R  183.   90.   1.0    3.   28.  25.0   1.0 -99.0
*IRRIGATION         
   0.950   20.   80.   95. GS000 IR001   0.0
   1996075 IR005   3.3
   1996076 IR005   3.3
   1996077 IR005   3.3
   1996078 IR005   0.9
   1996079 IR005   0.9
   1996080 IR005   0.9
   1996081 IR005   0.2
   1996082 IR005   0.2
   1996083 IR005   0.1
   1996084 IR005   0.1
   1996085 IR005   1.2
   1996086 IR005   0.0
   1996087 IR005   0.0
   1996088 IR005   0.0
   1996089 IR005   0.0
   1996090 IR005   0.0
   1996091 IR005   0.0
   1996092 IR005   0.0
   1996093 IR005   0.0
   1996094 IR005   0.0
   1996095 IR005   1.1
   1996096 IR005   0.0
   1996097 IR005   0.0
   1996098 IR005   0.0
   1996099 IR005   0.0
   1996100 IR005   0.0
   1996101 IR005   0.0
   1996102 IR005   0.0
   1996104 IR005   0.0
   1996105 IR005   0.0
   1996106 IR005   0.0
   1996107 IR005   0.0
   1996108 IR005   0.0
   1996109 IR005   1.1
   1996110 IR005   0.1
   1996111 IR005   1.2
   1996112 IR005   1.2
   1996113 IR005   1.2
   1996114 IR005   0.3
   1996115 IR005   0.3
   1996116 IR005   1.1
   1996117 IR005   1.9
   1996118 IR005   0.9
   1996119 IR005   0.9
   1996120 IR005   0.9
   1996121 IR005   0.9
   1996122 IR005   0.0
   1996123 IR005   1.2
   1996124 IR005   1.9
   1996125 IR005   3.2
   1996126 IR005   3.2
   1996127 IR005   3.2
   1996128 IR005  14.9
   1996129 IR005  14.9
   1996130 IR005   4.9
   1996131 IR005   7.3
   1996132 IR005   5.7
   1996133 IR005   1.5
   1996134 IR005   1.5
   1996135 IR005   6.7
   1996136 IR005   1.1
   1996137 IR005   2.4
   1996138 IR005   6.2
   1996139 IR005   3.8
   1996140 IR005   3.8
   1996141 IR005   2.3
   1996142 IR005   2.3
   1996143 IR005   2.3
   1996144 IR005   1.1
   1996145 IR005   6.6
   1996146 IR005   2.6
   1996147 IR005   2.6
   1996148 IR005   2.6
   1996149 IR005   2.6
   1996150 IR005   7.1
   1996151 IR005   1.1
   1996152 IR005   5.9
   1996153 IR005   5.9
   1996154 IR005   5.9
   1996155 IR005   5.9
   1996156 IR005   5.9
   1996157 IR005   3.9
   1996158 IR005   3.9
   1996159 IR005   3.9
   1996160 IR005  15.7
   1996161 IR005   3.0
   1996162 IR005   3.3
   1996163 IR005   4.6
   1996164 IR005   4.6
   1996165 IR005   3.7
   1996166 IR005   3.7
   1996167 IR005   3.7
   1996168 IR005   4.9
   1996169 IR005   4.9
   1996170 IR005   3.7
   1996171 IR005   4.5
   1996172 IR005   4.4
*FERTILIZERS        
   1996061 FE003 AP002   10.   80.   10.   64.  -99.  -99.   -99
   1996081 FE003 AP002    1.   12.    0.   10.  -99.  -99.   -99
   1996088 FE003 AP002    1.   12.    0.   10.  -99.  -99.   -99
   1996095 FE003 AP002    1.   12.    0.   10.  -99.  -99.   -99
   1996102 FE003 AP002    1.   12.    0.   10.  -99.  -99.   -99
   1996109 FE003 AP002    1.   12.    0.   10.  -99.  -99.   -99
   1996116 FE003 AP002    1.   12.    0.   10.  -99.  -99.   -99
   1996123 FE003 AP002    1.   12.    0.   10.  -99.  -99.   -99
   1996130 FE003 AP002    1.   12.    0.   10.  -99.  -99.   -99
   1996137 FE003 AP002    1.   12.    0.   10.  -99.  -99.   -99
   1996144 FE003 AP002    1.   12.    0.   10.  -99.  -99.   -99
*RESIDUES           
*CHEMICALS          
*TILLAGE            
*ENVIRONMENT        
*HARVEST            
   1996165 GS000   -99   -99  100.    0.
*SOIL               
 UFGA950003  Alachua cou SA     201.   Millhopper Fine Sand (Mulched)                  
 99          -99          -0.009  -0.099 Loamy, siliceous hyperthermic Grossarenic Paleudul
 -99    0.18   5.0  0.50   66.  1.00  0.92 B001  B001  B001  -99  
    5.       0.024 0.161 0.487 1.000  5.58  1.36 0.730   2.1   6.3   0.0 0.080  5.20-99.00  5.40-99.00
   15.       0.024 0.161 0.487 1.000  9.30  1.36 0.730   2.1   6.3   0.0 0.080  5.20-99.00  5.40-99.00
   24.       0.016 0.104 0.407 0.300  24.4  1.55 0.340   2.3   4.1   0.0 0.030  5.40-99.00  2.90-99.00
   33.       0.016 0.104 0.407 0.300  24.4  1.55 0.340   2.3   4.1   0.0 0.030  5.40-99.00  2.90-99.00
   47.       0.011 0.113 0.408 0.100  31.9  1.57 0.190   2.4   3.3   0.0 0.020  5.20-99.00  1.90-99.00
   61.       0.011 0.113 0.408 0.100  31.9  1.57 0.190   2.4   3.3   0.0 0.020  5.20-99.00  1.90-99.00
   75.       0.011 0.113 0.408 0.100  31.9  1.57 0.190   2.4   3.3   0.0 0.020  5.20-99.00  1.90-99.00
   89.       0.011 0.113 0.408 0.100  31.9  1.57 0.190   2.4   3.3   0.0 0.020  5.20-99.00  1.90-99.00
  118.       0.021 0.080 0.385 0.050  32.9  1.63 0.070   1.9   3.3   9.0 0.010  5.30-99.00  1.10-99.00
  147.       0.021 0.080 0.385 0.050  32.9  1.63 0.070   1.9   3.3   9.0 0.010  5.30-99.00  1.10-99.00
  157.       0.022 0.101 0.404 0.000  19.8  1.58 0.070   4.1   3.9   0.0 0.010  5.20-99.00  2.00-99.00
  175.       0.070 0.196 0.374 0.000  4.00  1.66 0.100  16.4   6.1   0.0 0.010  4.90-99.00  6.00-99.00
  203.       0.105 0.248 0.351 0.000 0.900  1.72 0.120  28.6   8.6   0.0 0.010  5.00-99.00 10.40-99.00
                    
    5.-99.00 -99.0 -99.0 -99.0 -99.0 -99.0 -99.0 -99.0 -99.0 -99.0-99.00 -99.0 -99.0 -99.0 -99.0 -99.0  -99.  -99.
   15.-99.00 -99.0 -99.0 -99.0 -99.0 -99.0 -99.0 -99.0 -99.0 -99.0-99.00 -99.0 -99.0 -99.0 -99.0 -99.0  -99.  -99.
   24.-99.00 -99.0 -99.0 -99.0 -99.0 -99.0 -99.0 -99.0 -99.0 -99.0-99.00 -99.0 -99.0 -99.0 -99.0 -99.0  -99.  -99.
   33.-99.00 -99.0 -99.0 -99.0 -99.0 -99.0 -99.0 -99.0 -99.0 -99.0-99.00 -99.0 -99.0 -99.0 -99.0 -99.0  -99.  -99.
   47.-99.00 -99.0 -99.0 -99.0 -99.0 -99.0 -99.0 -99.0 -99.0 -99.0-99.00 -99.0 -99.0 -99.0 -99.0 -99.0  -99.  -99.
   61.-99.00 -99.0 -99.0 -99.0 -99.0 -99.0 -99.0 -99.0 -99.0 -99.0-99.00 -99.0 -99.0 -99.0 -99.0 -99.0  -99.  -99.
   75.-99.00 -99.0 -99.0 -99.0 -99.0 -99.0 -99.0 -99.0 -99.0 -99.0-99.00 -99.0 -99.0 -99.0 -99.0 -99.0  -99.  -99.
   89.-99.00 -99.0 -99.0 -99.0 -99.0 -99.0 -99.0 -99.0 -99.0 -99.0-99.00 -99.0 -99.0 -99.0 -99.0 -99.0  -99.  -99.
  118.-99.00 -99.0 -99.0 -99.0 -99.0 -99.0 -99.0 -99.0 -99.0 -99.0-99.00 -99.0 -99.0 -99.0 -99.0 -99.0  -99.  -99.
  147.-99.00 -99.0 -99.0 -99.0 -99.0 -99.0 -99.0 -99.0 -99.0 -99.0-99.00 -99.0 -99.0 -99.0 -99.0 -99.0  -99.  -99.
  157.-99.00 -99.0 -99.0 -99.0 -99.0 -99.0 -99.0 -99.0 -99.0 -99.0-99.00 -99.0 -99.0 -99.0 -99.0 -99.0  -99.  -99.
  175.-99.00 -99.0 -99.0 -99.0 -99.0 -99.0 -99.0 -99.0 -99.0 -99.0-99.00 -99.0 -99.0 -99.0 -99.0 -99.0  -99.  -99.
  203.-99.00 -99.0 -99.0 -99.0 -99.0 -99.0 -99.0 -99.0 -99.0 -99.0-99.00 -99.0 -99.0 -99.0 -99.0 -99.0  -99.  -99.
                    
    5.-99.00-99.00-99.00-99.00
   15.-99.00-99.00-99.00-99.00
   24.-99.00-99.00-99.00-99.00
   33.-99.00-99.00-99.00-99.00
   47.-99.00-99.00-99.00-99.00
   61.-99.00-99.00-99.00-99.00
   75.-99.00-99.00-99.00-99.00
   89.-99.00-99.00-99.00-99.00
  118.-99.00-99.00-99.00-99.00
  147.-99.00-99.00-99.00-99.00
  157.-99.00-99.00-99.00-99.00
  175.-99.00-99.00-99.00-99.00
  203.-99.00-99.00-99.00-99.00
*CULTIVAR           
TM0005 Agriset 761 10'  TM0001 12.33 0.000 24.40  2.20 19.00 45.20 52.00 1.360 300.0 300.0  0.78 0.004 26.00300.00 54.00   8.5 0.300 0.050
