*MODEL INPUT FILE            B     1     1     1   999     0
*FILES              
MODEL          CRGRO048
FILEX          UFGA0701.GBX                                                                                 
FILEA          UFGA0701.GBA                                                                                 
FILET          UFGA0701.GBT                                                                                 
SPECIES        GBGRO048.SPE C:\DSSAT48\GENOTYPE\                                                            
ECOTYPE        GBGRO048.ECO C:\DSSAT48\GENOTYPE\                                                            
CULTIVAR       GBGRO048.CUL C:\DSSAT48\GENOTYPE\                                                            
PESTS          GBGRO048.PST C:\DSSAT48\PEST\                                                                
SOILS          SOIL.SOL     C:\DSSAT48\SOIL\                                                                
WEATHERW       UFGA0701.WTH C:\DSSAT48\Weather\                                                             
OUTPUT         OVERVIEW
*SIMULATION CONTROL 
                   1     1     S 2007068  2150 Fresh Market Harvest (Da 
                   Y     Y     N     N     N     N     N     N     M
                   M     M     E     R     S     L     R     1     P     R     2     D     0
                   R     R     R     R     R
                   N     Y     Y     1     Y     N     Y     Y     N     N     Y     N     N
!AUTOMATIC MANAGEM  
                   -99     -99   40.  100.   30.   40.   10.
                 30.   50.  100. GS000 IR001  10.0 1.000
                 30.   50.   25. FE001 GS000
                100.     1   20.
                     0     -99  100.    0.
*EXP.DETAILS        
  1UFGA0701 GB SNAP BEAN SPRING 2007                                       
*TREATMENTS         
  1 1 1 0 Low N + Optim Irr FreshH 
*CULTIVARS          
   GB GB0001 Bronco Habit 1  
*FIELDS             
   UFGA0001 UFGA0701   0.0  -99.   -99  -99. 100.0   -99 S      -99. IBGB910015-99.00 -99.0
    -99.0000000000  -99.0000000000   -99.000               1.0  100.   1.0 -99.0   -99   -99
*INITIAL CONDITIONS 
               0     0     0  1.00  1.00 -99.0     0  0.00  0.00  100.    0.
      5. 0.086   0.0   0.0
     15. 0.086   0.0   0.0
     30. 0.086   0.0   0.0
     45. 0.086   0.0   0.0
     60. 0.086   0.0   0.0
     90. 0.076   0.0   0.0
    120. 0.076   0.0   0.0
    150. 0.130   0.0   0.0
    180. 0.258   0.0   0.0
*PLANTING DETAILS   
   2007074     -99  34.0  34.0     S     R   61.  -99.   2.5  -99.  -99. -99.0 -99.0 -99.0
*IRRIGATION         
   1.000   30.   50.  100. GS000 IR001  10.0
   2007073 IR004  15.2
   2007074 IR004  13.2
   2007081 IR004   5.8
   2007085 IR004   8.2
   2007089 IR004   9.7
   2007093 IR004   9.7
   2007102 IR004   7.4
   2007104 IR004   9.1
   2007110 IR004   9.0
   2007114 IR004  11.7
   2007117 IR004  14.8
   2007120 IR004  15.3
   2007123 IR004  15.4
   2007126 IR004  17.4
   2007130 IR004  14.9
   2007133 IR004  21.0
   2007135 IR004   3.3
   2007140 IR004  13.3
   2007144 IR004  15.2
   2007145 IR004   7.1
   2007150 IR004  14.2
*FERTILIZERS        
   2007068 FE006 AP001    0.   37.  112.  112.  -99.  -99.   -99
*RESIDUES           
*CHEMICALS          
*TILLAGE            
*ENVIRONMENT        
*HARVEST            
   2007136 GS000   -99   -99  100.    0.
*SOIL               
 IBGB910015  SCS-Desire  S      -99.   Millhopper Fine Sand                            
 Gainesville USA          29.600 -82.370 Loamy,silic,hyperth Gross. Paleudults             
 -99    0.18   5.0  0.50   66.  1.00  0.92 IB001 IB001 IB001 -99  
    5.       0.023 0.086 0.230 1.000  7.40  1.47 0.900   0.9  11.8 -99.0  -9.0  5.30-99.00-99.00-99.00
   15.       0.023 0.086 0.230 1.000  7.40  1.47 0.690   0.9  11.8 -99.0  -9.0  5.40-99.00-99.00-99.00
   30.       0.023 0.086 0.230 0.900  15.8  1.41 0.280   4.6   6.4 -99.0  -9.0  5.70-99.00-99.00-99.00
   45.       0.023 0.086 0.230 0.700  28.0  1.43 0.200   5.8   5.4 -99.0  -9.0  5.80-99.00-99.00-99.00
   60.       0.023 0.086 0.230 0.500  28.0  1.43 0.200   5.8   5.4 -99.0  -9.0  5.80-99.00-99.00-99.00
   90.       0.021 0.076 0.230 0.200  27.6  1.52 0.090   9.6   4.2 -99.0  -9.0  5.90-99.00-99.00-99.00
  120.       0.020 0.076 0.230 0.100  17.5  1.52 0.030   9.6   4.2 -99.0  -9.0  5.90-99.00-99.00-99.00
  150.       0.027 0.130 0.230 0.050 0.300  1.46 0.030   8.3   3.6 -99.0  -9.0  5.90-99.00-99.00-99.00
  180.       0.070 0.258 0.360 0.000 0.100  1.46 0.030   8.3   3.6 -99.0  -9.0  5.90-99.00-99.00-99.00
                    
    5.-99.00 -99.0 -99.0 -99.0 -99.0 -99.0 -99.0 -99.0 -99.0 -99.0-99.00 -99.0 -99.0 -99.0 -99.0 -99.0  -99.  -99.
   15.-99.00 -99.0 -99.0 -99.0 -99.0 -99.0 -99.0 -99.0 -99.0 -99.0-99.00 -99.0 -99.0 -99.0 -99.0 -99.0  -99.  -99.
   30.-99.00 -99.0 -99.0 -99.0 -99.0 -99.0 -99.0 -99.0 -99.0 -99.0-99.00 -99.0 -99.0 -99.0 -99.0 -99.0  -99.  -99.
   45.-99.00 -99.0 -99.0 -99.0 -99.0 -99.0 -99.0 -99.0 -99.0 -99.0-99.00 -99.0 -99.0 -99.0 -99.0 -99.0  -99.  -99.
   60.-99.00 -99.0 -99.0 -99.0 -99.0 -99.0 -99.0 -99.0 -99.0 -99.0-99.00 -99.0 -99.0 -99.0 -99.0 -99.0  -99.  -99.
   90.-99.00 -99.0 -99.0 -99.0 -99.0 -99.0 -99.0 -99.0 -99.0 -99.0-99.00 -99.0 -99.0 -99.0 -99.0 -99.0  -99.  -99.
  120.-99.00 -99.0 -99.0 -99.0 -99.0 -99.0 -99.0 -99.0 -99.0 -99.0-99.00 -99.0 -99.0 -99.0 -99.0 -99.0  -99.  -99.
  150.-99.00 -99.0 -99.0 -99.0 -99.0 -99.0 -99.0 -99.0 -99.0 -99.0-99.00 -99.0 -99.0 -99.0 -99.0 -99.0  -99.  -99.
  180.-99.00 -99.0 -99.0 -99.0 -99.0 -99.0 -99.0 -99.0 -99.0 -99.0-99.00 -99.0 -99.0 -99.0 -99.0 -99.0  -99.  -99.
                    
    5.-99.00-99.00-99.00-99.00
   15.-99.00-99.00-99.00-99.00
   30.-99.00-99.00-99.00-99.00
   45.-99.00-99.00-99.00-99.00
   60.-99.00-99.00-99.00-99.00
   90.-99.00-99.00-99.00-99.00
  120.-99.00-99.00-99.00-99.00
  150.-99.00-99.00-99.00-99.00
  180.-99.00-99.00-99.00-99.00
*CULTIVAR           
GB0001 Bronco Habit 1   SNAPBN 12.17 0.000 21.00  2.80 12.00 15.00 12.00 1.000 250.0 133.0  0.97 0.290 14.00  5.40  6.00  77.0 0.255 0.030
