*MODEL INPUT FILE            B     1     1     1   999     0
*FILES              
MODEL          CRGRO048
FILEX          CCQU7901.BRX                                                                                 
FILEA          CCQU7901.BRA                                                                                 
FILET          CCQU7901.BRT                                                                                 
SPECIES        BRGRO048.SPE C:\DSSAT48\GENOTYPE\                                                            
ECOTYPE        BRGRO048.ECO C:\DSSAT48\GENOTYPE\                                                            
CULTIVAR       BRGRO048.CUL C:\DSSAT48\GENOTYPE\                                                            
PESTS          BRGRO048.PST C:\DSSAT48\PEST\                                                                
SOILS          SOIL.SOL     C:\DSSAT48\SOIL\                                                                
WEATHERW       CCQU7901.WTH C:\DSSAT48\Weather\                                                             
OUTPUT         OVERVIEW
*SIMULATION CONTROL 
                   1     1     S 1979246  2150 BRACH : C4GRASS 4 YR     
                   Y     Y     N     N     N     Y     N     N     M
                   M     M     E     R     S     C     R     1     P     R     2     D     0
                   R     R     R     N     R
                   N     Y     Y     1     Y     Y     Y     Y     N     Y     Y     N     N
!AUTOMATIC MANAGEM  
                   -99     -99   40.  100.   30.   40.   10.
                 30.   50.  100. GS000 IR001  10.0 0.000
                 30.   50.   25. FE001 GS000
                100.     1   20.
                     0     -99  100.    0.
*EXP.DETAILS        
  1CCQU7901 BR BRACHIARIA ON QUILICHAO                                     
*TREATMENTS         
  1 0 0 0 79 Treatment 1           
*CULTIVARS          
   BR CC0005 Brachiaria 5    
*FIELDS             
   CCQU0001 CCQU7901   0.0    0. DR000    0. 100.0     0 CLLO   260. CCQU790001-99.00 -99.0
      0.0000000000    0.0000000000   990.000               1.0  100.   1.0   0.0   -99   -99
*INITIAL CONDITIONS 
   SB    1979246     0     0  1.00  1.00 -99.0     0  0.00  0.00  100.   15.
      5. 0.470  1.00  3.90
     15. 0.473  1.00  3.80
     20. 0.491  1.00  3.20
     30. 0.495 0.900  2.96
     40. 0.510 0.500  2.00
     50. 0.520 0.800  1.46
     60. 0.527  1.00  1.10
*PLANTING DETAILS   
   1979254 1979262 100.0 100.0     S     R   10.    0.   1.0    3.  -99. -99.0 -99.0   0.0
*IRRIGATION         
   1.000    0.    0.    0. GS000 IR001   0.0
*FERTILIZERS        
   1979254 FE005 AP002    0.   50.    0.    0.    0.    0.   -99
   1979315 FE005 AP002    0.   50.    0.    0.    0.    0.   -99
*RESIDUES           
*CHEMICALS          
*TILLAGE            
*ENVIRONMENT        
*HARVEST            
   1982125 GS000     C   -99  100.    0.
*SOIL               
 CCQU790001  SCS         CLLO   260.   QUILICHAO                                       
 QUILICHAO   COLOMBIA      3.000  76.510 Fine, Kaolinitic, Isohyperth. oxic                
 BN     0.13   6.7  0.18   76.  1.00  1.00 IB001 IB001 IB001 -99  
    5.       0.351 0.468 0.483 1.000  -99.  0.96 5.100  71.0  18.0 -99.0 0.440  4.10-99.00  2.20-99.00
   15.       0.351 0.468 0.483 1.000  -99.  0.96 5.100  71.0  18.0 -99.0 0.440  4.10-99.00  2.20-99.00
   20.       0.351 0.468 0.483 1.000  -99.  0.96 5.100  71.0  18.0 -99.0 0.440  4.10-99.00  2.20-99.00
   30.       0.356 0.470 0.485 0.700  -99.  1.02 3.770  72.0  13.0 -99.0 0.320  3.90-99.00  1.70-99.00
   40.       0.356 0.470 0.485 0.700  -99.  1.02 3.770  72.0  13.0 -99.0 0.320  3.90-99.00  1.70-99.00
   50.       0.366 0.480 0.487 0.400  -99.  1.12 2.770  74.0  13.0 -99.0 0.220  3.90-99.00  1.30-99.00
   60.       0.366 0.480 0.487 0.400  -99.  1.12 2.770  74.0  13.0 -99.0 0.220  3.90-99.00  1.30-99.00
                    
    5.-99.00 -99.0 -99.0 -99.0 -99.0 -99.0 -99.0 -99.0 -99.0 -99.0-99.00 -99.0 -99.0 -99.0 -99.0 -99.0  -99.  -99.
   15.-99.00 -99.0 -99.0 -99.0 -99.0 -99.0 -99.0 -99.0 -99.0 -99.0-99.00 -99.0 -99.0 -99.0 -99.0 -99.0  -99.  -99.
   20.-99.00 -99.0 -99.0 -99.0 -99.0 -99.0 -99.0 -99.0 -99.0 -99.0-99.00 -99.0 -99.0 -99.0 -99.0 -99.0  -99.  -99.
   30.-99.00 -99.0 -99.0 -99.0 -99.0 -99.0 -99.0 -99.0 -99.0 -99.0-99.00 -99.0 -99.0 -99.0 -99.0 -99.0  -99.  -99.
   40.-99.00 -99.0 -99.0 -99.0 -99.0 -99.0 -99.0 -99.0 -99.0 -99.0-99.00 -99.0 -99.0 -99.0 -99.0 -99.0  -99.  -99.
   50.-99.00 -99.0 -99.0 -99.0 -99.0 -99.0 -99.0 -99.0 -99.0 -99.0-99.00 -99.0 -99.0 -99.0 -99.0 -99.0  -99.  -99.
   60.-99.00 -99.0 -99.0 -99.0 -99.0 -99.0 -99.0 -99.0 -99.0 -99.0-99.00 -99.0 -99.0 -99.0 -99.0 -99.0  -99.  -99.
                    
    5.-99.00-99.00-99.00-99.00
   15.-99.00-99.00-99.00-99.00
   20.-99.00-99.00-99.00-99.00
   30.-99.00-99.00-99.00-99.00
   40.-99.00-99.00-99.00-99.00
   50.-99.00-99.00-99.00-99.00
   60.-99.00-99.00-99.00-99.00
*CULTIVAR           
CC0005 Brachiaria 5     BR0001 12.00 0.200 99.00 10.00 18.00 33.00 25.00 2.200 225.0   2.0  0.01 0.002 18.00  2.05 20.00  78.0 0.398 0.500
