*MODEL INPUT FILE            B     1     1     1   999     0
*FILES              
MODEL          CRGRO048
FILEX          GAGR9802.CPX                                                                                 
FILEA          GAGR9802.CPA                                                                                 
FILET          GAGR9802.CPT                                                                                 
SPECIES        CPGRO048.SPE C:\DSSAT48\GENOTYPE\                                                            
ECOTYPE        CPGRO048.ECO C:\DSSAT48\GENOTYPE\                                                            
CULTIVAR       CPGRO048.CUL C:\DSSAT48\GENOTYPE\                                                            
PESTS          CPGRO048.PST C:\DSSAT48\PEST\                                                                
SOILS          SOIL.SOL     C:\DSSAT48\SOIL\                                                                
WEATHERW       EN019801.WTH C:\DSSAT48\Weather\                                                             
OUTPUT         OVERVIEW
*SIMULATION CONTROL 
                   1     1     S 1998167  2150 ENVIROTRON               
                   N     N     Y     N     N     N     N     N     D
                   M     M     E     R     S     L     R     1     G     R     2     D     0
                   R     N     R     N     M
                   N     Y     Y     1     Y     N     Y     Y     N     Y     Y     N     N
!AUTOMATIC MANAGEM  
                   -99     -99   40.  100.   30.   40.   10.
                 30.   50.  100. GS000 IR001  10.0 1.000
                 30.   50.   25. FE001 GS000
                100.     1   20.
                     0     -99  100.    0.
*EXP.DETAILS        
  1GAGR9802 CP 1998 UGA ENVIROTRON TEMPERATURE*CO2                         
*TREATMENTS         
  1 0 0 0 INDIA 23/15              
*CULTIVARS          
   CP CP0003 TVU3046 - India 
*FIELDS             
   ENVI9801 EN019801   0.0    0. DR000    0. 100.0 00000 -99    191. GA00620001-99.00 -99.0
      0.0000000000    0.0000000000     0.000               1.0  100.   1.0   0.0   -99   -99
*INITIAL CONDITIONS 
   SB    1998167     0     0  1.00  1.00 -99.0     0  0.00  0.00  100.   15.
      5. 0.209   0.0   0.0
     15. 0.209   0.0   0.0
     18. 0.209   0.0   0.0
     28. 0.275   0.0   0.0
     53. 0.392   0.0   0.0
     77. 0.392   0.0   0.0
    102. 0.392   0.0   0.0
    127. 0.392   0.0   0.0
    148. 0.392   0.0   0.0
    170. 0.392   0.0   0.0
    191. 0.392   0.0   0.0
*PLANTING DETAILS   
   1998167 1998171   8.5   8.5     S     R    7.    0.   1.0  -99.  -99. -99.0 -99.0   0.0
*IRRIGATION         
   1.000    0.    0.    0. GS000 IR001   0.0
*FERTILIZERS        
*RESIDUES           
*CHEMICALS          
*TILLAGE            
*ENVIRONMENT        
*HARVEST            
*SOIL               
 GA00620001  SCS         -99    191.   LLOYD SERIES - SPALDING COUNTY, GA              
 GRIFFIN     USA          33.000 -84.300 RED YELLOW PODZOLIC                               
 R      0.14   9.0  0.60   76.  1.00  0.92 IB001 IB001 IB001 -99  
    5.       0.092 0.209 0.325 1.000  -99.  1.40 0.380  12.5  19.6   0.0 -99.0  5.50-99.00-99.00-99.00
   15.       0.092 0.209 0.325 1.000  -99.  1.40 0.380  12.5  19.6   0.0 -99.0  5.50-99.00-99.00-99.00
   18.       0.092 0.209 0.325 1.000  -99.  1.40 0.380  12.5  19.6   0.0 -99.0  5.50-99.00-99.00-99.00
   28.       0.158 0.275 0.344 0.750  -99.  1.40 0.120  27.5  17.4   0.0 -99.0  5.00-99.00-99.00-99.00
   53.       0.269 0.392 0.409 0.500  -99.  1.40 0.050  52.5  29.4   0.0 -99.0  5.00-99.00-99.00-99.00
   77.       0.269 0.392 0.409 0.500  -99.  1.40 0.050  52.5  29.4   0.0 -99.0  5.00-99.00-99.00-99.00
  102.       0.269 0.392 0.409 0.500  -99.  1.40 0.050  52.5  29.4   0.0 -99.0  5.00-99.00-99.00-99.00
  127.       0.269 0.392 0.409 0.500  -99.  1.40 0.050  52.5  29.4   0.0 -99.0  5.00-99.00-99.00-99.00
  148.       0.269 0.392 0.409 0.350  -99.  1.40 0.050  52.5  29.4   0.0 -99.0  5.00-99.00-99.00-99.00
  170.       0.269 0.392 0.409 0.350  -99.  1.40 0.050  52.5  29.4   0.0 -99.0  5.00-99.00-99.00-99.00
  191.       0.269 0.392 0.409 0.350  -99.  1.40 0.050  52.5  29.4   0.0 -99.0  5.00-99.00-99.00-99.00
                    
    5.-99.00 -99.0 -99.0 -99.0 -99.0 -99.0 -99.0 -99.0 -99.0 -99.0-99.00 -99.0 -99.0 -99.0 -99.0 -99.0  -99.  -99.
   15.-99.00 -99.0 -99.0 -99.0 -99.0 -99.0 -99.0 -99.0 -99.0 -99.0-99.00 -99.0 -99.0 -99.0 -99.0 -99.0  -99.  -99.
   18.-99.00 -99.0 -99.0 -99.0 -99.0 -99.0 -99.0 -99.0 -99.0 -99.0-99.00 -99.0 -99.0 -99.0 -99.0 -99.0  -99.  -99.
   28.-99.00 -99.0 -99.0 -99.0 -99.0 -99.0 -99.0 -99.0 -99.0 -99.0-99.00 -99.0 -99.0 -99.0 -99.0 -99.0  -99.  -99.
   53.-99.00 -99.0 -99.0 -99.0 -99.0 -99.0 -99.0 -99.0 -99.0 -99.0-99.00 -99.0 -99.0 -99.0 -99.0 -99.0  -99.  -99.
   77.-99.00 -99.0 -99.0 -99.0 -99.0 -99.0 -99.0 -99.0 -99.0 -99.0-99.00 -99.0 -99.0 -99.0 -99.0 -99.0  -99.  -99.
  102.-99.00 -99.0 -99.0 -99.0 -99.0 -99.0 -99.0 -99.0 -99.0 -99.0-99.00 -99.0 -99.0 -99.0 -99.0 -99.0  -99.  -99.
  127.-99.00 -99.0 -99.0 -99.0 -99.0 -99.0 -99.0 -99.0 -99.0 -99.0-99.00 -99.0 -99.0 -99.0 -99.0 -99.0  -99.  -99.
  148.-99.00 -99.0 -99.0 -99.0 -99.0 -99.0 -99.0 -99.0 -99.0 -99.0-99.00 -99.0 -99.0 -99.0 -99.0 -99.0  -99.  -99.
  170.-99.00 -99.0 -99.0 -99.0 -99.0 -99.0 -99.0 -99.0 -99.0 -99.0-99.00 -99.0 -99.0 -99.0 -99.0 -99.0  -99.  -99.
  191.-99.00 -99.0 -99.0 -99.0 -99.0 -99.0 -99.0 -99.0 -99.0 -99.0-99.00 -99.0 -99.0 -99.0 -99.0 -99.0  -99.  -99.
                    
    5.-99.00-99.00-99.00-99.00
   15.-99.00-99.00-99.00-99.00
   18.-99.00-99.00-99.00-99.00
   28.-99.00-99.00-99.00-99.00
   53.-99.00-99.00-99.00-99.00
   77.-99.00-99.00-99.00-99.00
  102.-99.00-99.00-99.00-99.00
  127.-99.00-99.00-99.00-99.00
  148.-99.00-99.00-99.00-99.00
  170.-99.00-99.00-99.00-99.00
  191.-99.00-99.00-99.00-99.00
*CULTIVAR           
CP0003 TVU3046 - India  CP0411 12.80 0.110 25.60  2.90  5.90 32.10  9.00 0.900 250.0 220.0  0.85 0.041  7.20  9.70 20.00  74.9 0.300 0.065
