*MODEL INPUT FILE            B     1     1     1   999     0
*FILES              
MODEL          CRGRO048
FILEX          SAUR9001.BRX                                                                                 
FILEA          SAUR9001.BRA                                                                                 
FILET          SAUR9001.BRT                                                                                 
SPECIES        BRGRO048.SPE C:\DSSAT48\GENOTYPE\                                                            
ECOTYPE        BRGRO048.ECO C:\DSSAT48\GENOTYPE\                                                            
CULTIVAR       BRGRO048.CUL C:\DSSAT48\GENOTYPE\                                                            
PESTS          BRGRO048.PST C:\DSSAT48\PEST\                                                                
SOILS          SOIL.SOL     C:\DSSAT48\SOIL\                                                                
WEATHERW       SAUR9001.WTH C:\DSSAT48\Weather\                                                             
OUTPUT         OVERVIEW
*SIMULATION CONTROL 
                   1     1     S 1990291  2150 BRACHI : C4GRASS 4 YR    
                   Y     Y     N     N     N     Y     N     N     M
                   M     M     E     R     S     C     R     1     P     R     2     D     0
                   R     R     R     N     R
                   N     Y     Y     1     Y     Y     Y     Y     N     Y     Y     N     N
!AUTOMATIC MANAGEM  
                   -99     -99   40.  100.   30.   40.   10.
                 30.   50.  100. GS000 IR001  10.0 1.000
                 30.   50.   25. FE001 GS000
                100.     1   20.
                     0     -99  100.    0.
*EXP.DETAILS        
  1SAUR9001 BR BRACHIARIA ON URRAO                                         
*TREATMENTS         
  1 0 0 0 90 Treatment 1           
*CULTIVARS          
   BR SA0001 Brachiaria 7    
*FIELDS             
   SAUR0001 SAUR9001   0.0    0. DR000    0. 100.0     0 SCL    120. SAUR900001-99.00 -99.0
      0.0000000000    0.0000000000  1850.000               1.0  100.   1.0   0.0           0
*INITIAL CONDITIONS 
   SB    1990291     0     0  1.00  1.00 -99.0     0  0.00  0.00  100.   15.
      5. 0.320 0.500  6.50
     15. 0.320 0.500  5.20
     20. 0.390 0.500  4.40
     25. 0.380 0.500  4.10
     30. 0.380 0.500  3.70
     35. 0.380 0.500  3.30
     40. 0.380 0.500  3.00
     55. 0.390 0.500  2.10
     70. 0.390 0.500  2.10
     95. 0.370 0.500 0.900
    120. 0.370 0.500 0.900
*PLANTING DETAILS   
   1990299 1990307 100.0 100.0     S     R   10.    0.   1.0    3.  -99. -99.0 -99.0   0.0
*IRRIGATION         
   1.000    0.    0.    0. GS000 IR001   0.0
*FERTILIZERS        
   1990299 FE005 AP002    0.   50.    0.    0.    0.    0.   -99
   1990330 FE005 AP002    0.   50.    0.    0.    0.    0.   -99
*RESIDUES           
*CHEMICALS          
*TILLAGE            
*ENVIRONMENT        
*HARVEST            
   1993010   -99     C   -99  100.    0.
*SOIL               
 SAUR900001  XXXX   SACL SCL    120.   SANDY CLAY LOAM AT URRAO-SECR.AGRIC. ANTIOQUIA  
 URRAO       COLOMBIA      4.600  71.310 Inseptisols                                       
 -99    0.13  11.5  0.65   75.  1.00  1.00 -99   -99   -99   -99  
    5.       0.190 0.320 0.410 0.950 0.680  1.36 1.560  30.0  23.0 -99.0 0.150  4.50-99.00  7.50-99.00
   15.       0.190 0.320 0.380 0.820 0.680  1.46 1.345  30.0  23.0 -99.0 0.150  4.50-99.00  7.50-99.00
   20.       0.270 0.380 0.390 0.700 0.680  1.47 1.150  30.0  23.0 -99.0 0.150  4.50-99.00  7.50-99.00
   25.       0.270 0.380 0.400 0.630 0.680  1.42 1.030  49.0  25.0 -99.0 0.150  4.50-99.00  5.80-99.00
   30.       0.270 0.380 0.390 0.580 0.660  1.44 0.950  49.0  25.0 -99.0 0.060  4.50-99.00  5.80-99.00
   35.       0.270 0.380 0.430 0.520 0.520  1.45 0.850  49.0  25.0 -99.0 0.060  4.50-99.00  5.80-99.00
   40.       0.270 0.380 0.430 0.470 0.520  1.45 0.770  49.0  25.0 -99.0 0.060  4.50-99.00  5.80-99.00
   55.       0.270 0.390 0.400 0.330 0.520  1.47 0.540  49.0  25.0 -99.0 0.050  4.50-99.00  5.80-99.00
   70.       0.270 0.390 0.400 0.330 0.520  1.47 0.540  49.0  25.0 -99.0 0.050  4.50-99.00  5.80-99.00
   95.       0.270 0.370 0.380 0.150 0.520  1.50 0.240  49.0  25.0 -99.0 0.020  4.50-99.00  5.80-99.00
  120.       0.270 0.370 0.380 0.150 0.520  1.50 0.240  49.0  25.0 -99.0 0.020  4.50-99.00  5.80-99.00
                    
    5.-99.00 -99.0 -99.0 -99.0 -99.0 -99.0 -99.0 -99.0 -99.0 -99.0-99.00 -99.0 -99.0 -99.0 -99.0 -99.0  -99.  -99.
   15.-99.00 -99.0 -99.0 -99.0 -99.0 -99.0 -99.0 -99.0 -99.0 -99.0-99.00 -99.0 -99.0 -99.0 -99.0 -99.0  -99.  -99.
   20.-99.00 -99.0 -99.0 -99.0 -99.0 -99.0 -99.0 -99.0 -99.0 -99.0-99.00 -99.0 -99.0 -99.0 -99.0 -99.0  -99.  -99.
   25.-99.00 -99.0 -99.0 -99.0 -99.0 -99.0 -99.0 -99.0 -99.0 -99.0-99.00 -99.0 -99.0 -99.0 -99.0 -99.0  -99.  -99.
   30.-99.00 -99.0 -99.0 -99.0 -99.0 -99.0 -99.0 -99.0 -99.0 -99.0-99.00 -99.0 -99.0 -99.0 -99.0 -99.0  -99.  -99.
   35.-99.00 -99.0 -99.0 -99.0 -99.0 -99.0 -99.0 -99.0 -99.0 -99.0-99.00 -99.0 -99.0 -99.0 -99.0 -99.0  -99.  -99.
   40.-99.00 -99.0 -99.0 -99.0 -99.0 -99.0 -99.0 -99.0 -99.0 -99.0-99.00 -99.0 -99.0 -99.0 -99.0 -99.0  -99.  -99.
   55.-99.00 -99.0 -99.0 -99.0 -99.0 -99.0 -99.0 -99.0 -99.0 -99.0-99.00 -99.0 -99.0 -99.0 -99.0 -99.0  -99.  -99.
   70.-99.00 -99.0 -99.0 -99.0 -99.0 -99.0 -99.0 -99.0 -99.0 -99.0-99.00 -99.0 -99.0 -99.0 -99.0 -99.0  -99.  -99.
   95.-99.00 -99.0 -99.0 -99.0 -99.0 -99.0 -99.0 -99.0 -99.0 -99.0-99.00 -99.0 -99.0 -99.0 -99.0 -99.0  -99.  -99.
  120.-99.00 -99.0 -99.0 -99.0 -99.0 -99.0 -99.0 -99.0 -99.0 -99.0-99.00 -99.0 -99.0 -99.0 -99.0 -99.0  -99.  -99.
                    
    5.-99.00-99.00-99.00-99.00
   15.-99.00-99.00-99.00-99.00
   20.-99.00-99.00-99.00-99.00
   25.-99.00-99.00-99.00-99.00
   30.-99.00-99.00-99.00-99.00
   35.-99.00-99.00-99.00-99.00
   40.-99.00-99.00-99.00-99.00
   55.-99.00-99.00-99.00-99.00
   70.-99.00-99.00-99.00-99.00
   95.-99.00-99.00-99.00-99.00
  120.-99.00-99.00-99.00-99.00
*CULTIVAR           
SA0001 Brachiaria 7     BR0001 12.00 0.200 99.00 10.00 18.00 33.00 25.00 2.200 225.0   2.0  0.01 0.002 18.00  2.05 20.00  78.0 0.398 0.500
