*MODEL INPUT FILE            B     1     1     1   999     0
*FILES              
MODEL          CRGRO048
FILEX          LUGO9102.SBX                                                                                 
FILEA          LUGO9102.SBA                                                                                 
FILET          LUGO9102.SBT                                                                                 
SPECIES        SBGRO048.SPE C:\DSSAT48\GENOTYPE\                                                            
ECOTYPE        SBGRO048.ECO C:\DSSAT48\GENOTYPE\                                                            
CULTIVAR       SBGRO048.CUL C:\DSSAT48\GENOTYPE\                                                            
PESTS          SBGRO048.PST C:\DSSAT48\PEST\                                                                
SOILS          SOIL.SOL     C:\DSSAT48\SOIL\                                                                
WEATHERW       LUGO9101.WTH C:\DSSAT48\Weather\                                                             
OUTPUT         OVERVIEW
*SIMULATION CONTROL 
                   1     1     S 1991128  2150 DEFAULT SIMULATION CONTR 
                   Y     Y     Y     N     N     N     N     Y     M
                   M     M     E     R     S     L     R     1     G     R     2     D     0
                   R     N     N     N     M
                   N     Y     Y     3     Y     Y     Y     N     N     N     Y     N     N
!AUTOMATIC MANAGEM  
                   -99     -99   40.  100.   30.   40.   10.
                 30.   50.  100. GS000 IR001  10.0 1.000
                 30.   50.   25. FE001 GS000
                100.     1   20.
                     0     -99  100.    0.
*EXP.DETAILS        
  1LUGO9102 SB SOJA, MAJOR, LABRADOR RAINFED 91                            
*TREATMENTS         
  1 0 0 0 91, 1ST SOW, LAB RAINFED 
*CULTIVARS          
   SB LU0004 LABR.  00       
*FIELDS             
   LUGO0001 LUGO9101   6.0    0.     0    0. 100.0    0S LO     130. LUGO930001-99.00 -99.0
      0.0000000000    0.0000000000   480.000               1.0  100.   1.0   0.0   -99   -99
*INITIAL CONDITIONS 
               0     0     0  1.00  1.00 -99.0     0  0.00  0.00  100.    0.
      5. 0.265   0.0   0.0
     15. 0.265   0.0   0.0
     30. 0.274   0.0   0.0
     40. 0.260   0.0   0.0
     50. 0.260   0.0   0.0
     65. 0.252   0.0   0.0
     93. 0.232   0.0   0.0
    122. 0.232   0.0   0.0
    150. 0.232   0.0   0.0
*PLANTING DETAILS   
   1991134     -99  45.0  45.0     S     R   40.   90.   2.5  -99.  -99. -99.0 -99.0   0.0
*IRRIGATION         
   1.000   30.   50.  100. GS000 IR005  10.0
*FERTILIZERS        
*RESIDUES           
*CHEMICALS          
*TILLAGE            
*ENVIRONMENT        
*HARVEST            
*SOIL               
 LUGO930001  SAU CAL SOY LO     130.   FINCA DE PRACTICAS EPS CALICATA 1 (LUGO) Plus 0.
 LUGO        SPAIN        43.000  -3.300 TYPIC HAPLUMREPT                                  
 YR     0.14   9.7  0.60   80.  1.00  1.00 IB001 IB001 IB001 -99  
    5.       0.121 0.265 0.348 1.000  21.5  0.95 2.830  21.0  26.0   9.9 4.880  6.50  5.30 15.40-99.00
   15.       0.121 0.265 0.348 1.000  21.5  0.95 2.830  21.0  26.0   9.9 4.880  6.50  5.30 15.40-99.00
   30.       0.125 0.274 0.350 0.750  28.1  1.12 2.340  21.0  27.0   4.8 4.030  6.40  5.00 11.40-99.00
   40.       0.111 0.260 0.354 0.500  50.3  1.26 0.560  18.0  32.0   6.9 0.960  6.00  4.00  6.60-99.00
   50.       0.111 0.260 0.354 0.500  50.3  1.26 0.560  18.0  32.0   6.9 0.960  6.00  4.00  6.60-99.00
   65.       0.101 0.252 0.344 0.350  31.0  1.31 0.480  15.0  29.0   2.2 0.830  5.20  3.70  5.90-99.00
   93.       0.085 0.232 0.321 0.200  12.9  1.35 0.410  11.0  19.0   0.2 0.720  4.90  3.30  5.00-99.00
  122.       0.085 0.232 0.321 0.200  12.9  1.35 0.410  11.0  19.0   0.2 0.720  4.90  3.30  5.00-99.00
  150.       0.085 0.232 0.321 0.200  12.9  1.35 0.410  11.0  19.0   0.2 0.720  4.90  3.30  5.00-99.00
                    
    5.-99.00 -99.0 -99.0 -99.0 -99.0 -99.0 -99.0 -99.0 -99.0 -99.0-99.00 -99.0 -99.0 -99.0 -99.0 -99.0  -99.  -99.
   15.-99.00 -99.0 -99.0 -99.0 -99.0 -99.0 -99.0 -99.0 -99.0 -99.0-99.00 -99.0 -99.0 -99.0 -99.0 -99.0  -99.  -99.
   30.-99.00 -99.0 -99.0 -99.0 -99.0 -99.0 -99.0 -99.0 -99.0 -99.0-99.00 -99.0 -99.0 -99.0 -99.0 -99.0  -99.  -99.
   40.-99.00 -99.0 -99.0 -99.0 -99.0 -99.0 -99.0 -99.0 -99.0 -99.0-99.00 -99.0 -99.0 -99.0 -99.0 -99.0  -99.  -99.
   50.-99.00 -99.0 -99.0 -99.0 -99.0 -99.0 -99.0 -99.0 -99.0 -99.0-99.00 -99.0 -99.0 -99.0 -99.0 -99.0  -99.  -99.
   65.-99.00 -99.0 -99.0 -99.0 -99.0 -99.0 -99.0 -99.0 -99.0 -99.0-99.00 -99.0 -99.0 -99.0 -99.0 -99.0  -99.  -99.
   93.-99.00 -99.0 -99.0 -99.0 -99.0 -99.0 -99.0 -99.0 -99.0 -99.0-99.00 -99.0 -99.0 -99.0 -99.0 -99.0  -99.  -99.
  122.-99.00 -99.0 -99.0 -99.0 -99.0 -99.0 -99.0 -99.0 -99.0 -99.0-99.00 -99.0 -99.0 -99.0 -99.0 -99.0  -99.  -99.
  150.-99.00 -99.0 -99.0 -99.0 -99.0 -99.0 -99.0 -99.0 -99.0 -99.0-99.00 -99.0 -99.0 -99.0 -99.0 -99.0  -99.  -99.
                    
    5.-99.00-99.00-99.00-99.00
   15.-99.00-99.00-99.00-99.00
   30.-99.00-99.00-99.00-99.00
   40.-99.00-99.00-99.00-99.00
   50.-99.00-99.00-99.00-99.00
   65.-99.00-99.00-99.00-99.00
   93.-99.00-99.00-99.00-99.00
  122.-99.00-99.00-99.00-99.00
  150.-99.00-99.00-99.00-99.00
*CULTIVAR           
LU0004 LABR.  00        SB0100 14.00 0.148 16.60  7.00 13.20 36.80 34.80 1.080 397.0 200.0  1.00 0.153 25.00  2.03 11.20  77.0 0.405 0.205
