*MODEL INPUT FILE            B     1     1     1   999     0
*FILES              
MODEL          PTSUB048
FILEX          WABE0301.PTX                                                                                 
FILEA          WABE0301.PTA                                                                                 
FILET          WABE0301.PTT                                                                                 
SPECIES        PTSUB048.SPE C:\DSSAT48\GENOTYPE\                                                            
ECOTYPE        PTSUB048.ECO C:\DSSAT48\GENOTYPE\                                                            
CULTIVAR       PTSUB048.CUL C:\DSSAT48\GENOTYPE\                                                            
PESTS          PTSUB048.PST C:\DSSAT48\PEST\                                                                
SOILS          WA.SOL       C:\DSSAT48\SOIL\                                                                
WEATHERW       USBE0301.WTH C:\DSSAT48\Weather\                                                             
OUTPUT         OVERVIEW
*SIMULATION CONTROL 
                   1     1     S 2003087  2150 DEFAULT SIMULATION CONTR 
                   Y     Y     N     N     N     N     N     Y     M
                   M     M     E     R     S     C     R     1     P     R     2     D     0
                   R     R     R     R     R
                   N     Y     Y     1     Y     Y     Y     Y     N     N     Y     N     N
!AUTOMATIC MANAGEM  
                   -99     -99   40.  100.   30.   40.   10.
                 30.   50.  100. GS000 IR001  10.0 1.000
                 30.   50.   25. FE001 GS000
                100.     1   20.
                     0     -99  100.    0.
*EXP.DETAILS        
  1WABE0301 PT NITROGEN FATE (ALVA ET AL., 2010)                           
*TREATMENTS         
  1 1 1 0 B (9 N app)              
*CULTIVARS          
   PT IB0003 Russet Burbank  
*FIELDS             
   USBE0301 USBE0301   0.0  -99.   -99  -99. 100.0   -99 S      -99. WABE000001-99.00 -99.0
   -119.5000000000   45.9000015259   125.000               1.0  100.   1.0 -99.0   -99   -99
*INITIAL CONDITIONS 
   99    2003087   300     0  1.00  1.00 -99.0  2000  0.00  0.00  100.    0.
      5. 0.100 0.600  5.80
     15. 0.100 0.600  5.80
     30. 0.100 0.600  5.80
     45. 0.070 0.600  5.80
     60. 0.070 0.600  5.80
     90. 0.094 0.600  5.80
    120. 0.097 0.600  5.80
*PLANTING DETAILS   
   2003087 2003110   5.0   5.0     S     9   80.  -99.   5.0  444.  -99. -99.0 -99.0   0.1
*IRRIGATION         
   1.000   30.   75.  -99. GS000 IR001   0.0
   2003087 IR004   6.9
   2003091 IR004   5.4
   2003098 IR004   7.6
   2003106 IR004   3.2
   2003108 IR004   7.6
   2003112 IR004   6.5
   2003116 IR004   5.4
   2003118 IR004   6.5
   2003122 IR004   6.5
   2003124 IR004   6.5
   2003126 IR004   6.5
   2003127 IR004   6.5
   2003129 IR004   7.6
   2003132 IR004   7.6
   2003133 IR004   8.4
   2003134 IR004   8.4
   2003135 IR004   6.5
   2003136 IR004   6.5
   2003139 IR004   7.6
   2003140 IR004   2.6
   2003141 IR004   6.8
   2003142 IR004   8.4
   2003143 IR004   7.6
   2003145 IR004   7.6
   2003146 IR004   7.6
   2003147 IR004   5.2
   2003148 IR004   6.5
   2003151 IR004   7.6
   2003152 IR004   8.4
   2003153 IR004   8.4
   2003154 IR004   6.8
   2003156 IR004   7.6
   2003157 IR004   8.4
   2003158 IR004   7.6
   2003160 IR004   7.6
   2003162 IR004   6.8
   2003163 IR004   7.6
   2003164 IR004   8.4
   2003165 IR004   6.5
   2003166 IR004   7.6
   2003167 IR004   7.6
   2003168 IR004   6.8
   2003170 IR004   6.8
   2003171 IR004   8.4
   2003172 IR004   7.6
   2003174 IR004   7.6
   2003175 IR004   7.6
   2003176 IR004   7.6
   2003177 IR004   7.6
   2003178 IR004   7.6
   2003179 IR004   7.6
   2003180 IR004   7.6
   2003181 IR004   7.6
   2003182 IR004   7.6
   2003183 IR004   7.6
   2003184 IR004   8.4
   2003185 IR004   8.4
   2003186 IR004   8.4
   2003187 IR004   7.6
   2003188 IR004   6.8
   2003189 IR004   7.6
   2003190 IR004   7.6
   2003191 IR004   7.6
   2003192 IR004   6.8
   2003193 IR004   7.6
   2003194 IR004   7.6
   2003196 IR004   8.4
   2003197 IR004   7.6
   2003198 IR004   7.6
   2003199 IR004   8.4
   2003200 IR004   8.4
   2003201 IR004   8.4
   2003202 IR004   7.6
   2003203 IR004   7.6
   2003205 IR004   7.6
   2003206 IR004   7.6
   2003207 IR004   7.6
   2003208 IR004   8.4
   2003209 IR004   7.6
   2003210 IR004   0.0
   2003211 IR004   7.6
   2003212 IR004   7.6
   2003213 IR004   7.6
   2003214 IR004   7.6
   2003217 IR004   7.6
   2003219 IR004   7.6
   2003220 IR004   6.5
   2003222 IR004   6.5
   2003223 IR004   7.6
   2003225 IR004   7.6
   2003226 IR004   7.6
   2003228 IR004   7.6
*FERTILIZERS        
   2003087 FE001   001    6.  112.  -99.  -99.  -99.  -99.   -99
   2003135 FE001   001    6.   22.  -99.  -99.  -99.  -99.   -99
   2003140 FE001   001    6.   11.  -99.  -99.  -99.  -99.   -99
   2003141 FE001   001    6.   45.  -99.  -99.  -99.  -99.   -99
   2003147 FE001   001    6.   22.  -99.  -99.  -99.  -99.   -99
   2003148 FE001   001    6.   45.  -99.  -99.  -99.  -99.   -99
   2003155 FE001   001    6.   11.  -99.  -99.  -99.  -99.   -99
   2003156 FE001   001    6.   45.  -99.  -99.  -99.  -99.   -99
   2003162 FE001   001    6.   11.  -99.  -99.  -99.  -99.   -99
*RESIDUES           
*CHEMICALS          
*TILLAGE            
*ENVIRONMENT        
*HARVEST            
   2003231 GS000   -99   -99  100.    0.
*SOIL               
 WABE000001  Calculated  S      -99. Sand                                              
 -99         USA          -0.099  -0.099 -99                                               
 -99    0.13   5.6  0.60   64.  1.00  1.00 -99   -99   -99   -99  
    5.       0.078 0.177 0.466 1.000  6.83  1.30 1.000   5.0  20.0 -99.0  -9.0  7.00-99.00  7.00-99.00
   15.       0.078 0.177 0.466 1.000  6.83  1.40 0.950   5.0  20.0 -99.0  -9.0  7.00-99.00  7.00-99.00
   30.       0.078 0.177 0.466 1.000  6.83  1.50 0.900   5.0  20.0 -99.0  -9.0  7.00-99.00  7.00-99.00
   45.       0.076 0.172 0.390 0.407  2.33  1.60 0.700   5.0  20.0 -99.0  -9.0  7.00-99.00  7.00-99.00
   60.       0.076 0.172 0.390 0.407  2.33  1.60 0.700   5.0  20.0 -99.0  -9.0  7.00-99.00  7.00-99.00
   90.       0.065 0.151 0.368 0.223  2.08  1.60 0.500   5.0  20.0 -99.0  -9.0  7.00-99.00  7.00-99.00
  120.       0.065 0.151 0.368 0.223  2.08  1.60 0.200   5.0  20.0 -99.0  -9.0  7.00-99.00  7.00-99.00
                    
    5.-99.00 -99.0 -99.0 -99.0 -99.0 -99.0 -99.0 -99.0 -99.0 -99.0-99.00 -99.0 -99.0 -99.0 -99.0 -99.0 0.700  -99.
   15.-99.00 -99.0 -99.0 -99.0 -99.0 -99.0 -99.0 -99.0 -99.0 -99.0-99.00 -99.0 -99.0 -99.0 -99.0 -99.0 0.750  -99.
   30.-99.00 -99.0 -99.0 -99.0 -99.0 -99.0 -99.0 -99.0 -99.0 -99.0-99.00 -99.0 -99.0 -99.0 -99.0 -99.0 0.800  -99.
   45.-99.00 -99.0 -99.0 -99.0 -99.0 -99.0 -99.0 -99.0 -99.0 -99.0-99.00 -99.0 -99.0 -99.0 -99.0 -99.0 0.980  -99.
   60.-99.00 -99.0 -99.0 -99.0 -99.0 -99.0 -99.0 -99.0 -99.0 -99.0-99.00 -99.0 -99.0 -99.0 -99.0 -99.0 0.980  -99.
   90.-99.00 -99.0 -99.0 -99.0 -99.0 -99.0 -99.0 -99.0 -99.0 -99.0-99.00 -99.0 -99.0 -99.0 -99.0 -99.0 0.980  -99.
  120.-99.00 -99.0 -99.0 -99.0 -99.0 -99.0 -99.0 -99.0 -99.0 -99.0-99.00 -99.0 -99.0 -99.0 -99.0 -99.0 0.980  -99.
                    
    5.-99.00-99.00-99.00-99.00
   15.-99.00-99.00-99.00-99.00
   30.-99.00-99.00-99.00-99.00
   45.-99.00-99.00-99.00-99.00
   60.-99.00-99.00-99.00-99.00
   90.-99.00-99.00-99.00-99.00
  120.-99.00-99.00-99.00-99.00
*CULTIVAR           
IB0003 Russet Burbank   IB0001  1522.  21.6   0.5   0.3  18.8
