*MODEL INPUT FILE            B     1     1     1   999     0
*FILES              
MODEL          RICER048
FILEX          DTSP8502.RIX                                                                                 
FILEA          DTSP8502.RIA                                                                                 
FILET          DTSP8502.RIT                                                                                 
SPECIES        RICER048.SPE C:\DSSAT48\GENOTYPE\                                                            
ECOTYPE        RICER048.ECO C:\DSSAT48\GENOTYPE\                                                            
CULTIVAR       RICER048.CUL C:\DSSAT48\GENOTYPE\                                                            
PESTS          RICER048.PST C:\DSSAT48\PEST\                                                                
SOILS          SOIL.SOL     C:\DSSAT48\SOIL\                                                                
WEATHERW       DTSP8501.WTH C:\DSSAT48\Weather\                                                             
OUTPUT         OVERVIEW
*SIMULATION CONTROL 
                   1     1     S 1985246  2150 Effects of appl. N & env 
                   Y     Y     N     N     N     N     N     N     M
                   M     M     E     R     S     C     R     1     G     R     2     D     0
                   R     R     R     R     M
                   N     Y     Y     1     Y     N     Y     Y     N     N     Y     N     N
!AUTOMATIC MANAGEM  
                   -99     -99   40.  100.   30.   40.   10.
                 30.   50.  100. IB001 IB001  10.0 0.500
                 30.   50.   25. IB001 IB001
                100.     1   20.
                     0     -99  100.    0.
*EXP.DETAILS        
  1DTSP8502 RI EFFECTS OF APPL. N & ENVIR. ON RICE                         
*TREATMENTS         
  1 1 0 0 0-0-0 NPK                
*CULTIVARS          
   RI IB0020 RD 23           
*FIELDS             
   DTSP0001 DTSP8501   0.0    0. IB000    0. 100.0 00000 -99     51. IBRI910024-99.00 -99.0
      0.0000000000    0.0000000000     0.000               1.0  100.   1.0   0.0   -99   -99
*INITIAL CONDITIONS 
   RI    1985246   500     0  1.00  1.00   1.0     0  0.00  0.00  100.   15.
      5. 0.374  10.0 0.700
     15. 0.351  6.50 0.560
     19. 0.341  5.00 0.500
     28. 0.369  3.00 0.300
     38. 0.369  3.00 0.300
     51. 0.344  3.00 0.300
*PLANTING DETAILS   
   1985246     -99  75.0  25.0     T     H   20.    0.   5.0    0.   25.  25.0   3.0   0.0
*IRRIGATION         
   1.000   30.   75.  -99. GS000 IR001  10.0
   1985246 IR006  50.0
   1985246 IR009 100.0
   1985246 IR008   2.0
   1985246 IR010   0.0
*FERTILIZERS        
*RESIDUES           
   1985246 RE001   500  0.53  0.00  0.00  100.   15.   -99
*CHEMICALS          
*TILLAGE            
*ENVIRONMENT        
*HARVEST            
*SOIL               
 IBRI910024  IBSNAT      -99     51.   Suphan Lowland                                  
 -99         -99          -0.009  -0.099 Fine, Mixed, Non-acid, Isohyper., Aeric Tropaquept
 -99    0.10   7.5  0.00   60.  1.00  1.00 IB001 IB001 IB001 -99  
    5.       0.245 0.332 0.398 1.000  -99.  1.41 1.810 -99.0 -99.0 -99.0  -9.0  7.00-99.00  5.00-99.00
   15.       0.220 0.338 0.401 0.553  -99.  1.47 1.096 -99.0 -99.0 -99.0  -9.0  7.00-99.00-99.00-99.00
   19.       0.210 0.341 0.402 0.361  -99.  1.49 0.790 -99.0 -99.0 -99.0  -9.0  7.00-99.00-99.00-99.00
   28.       0.242 0.369 0.404 0.200  -99.  1.39 0.540 -99.0 -99.0 -99.0  -9.0  7.00-99.00-99.00-99.00
   38.       0.242 0.369 0.404 0.100  -99.  1.39 0.540 -99.0 -99.0 -99.0  -9.0  7.00-99.00-99.00-99.00
   51.       0.218 0.344 0.388 0.100  -99.  1.34 0.320 -99.0 -99.0 -99.0  -9.0  7.00-99.00-99.00-99.00
                    
    5.-99.00 -99.0 -99.0 -99.0 -99.0 -99.0 -99.0 -99.0 -99.0 -99.0-99.00 -99.0 -99.0 -99.0 -99.0 -99.0  -99.  -99.
   15.-99.00 -99.0 -99.0 -99.0 -99.0 -99.0 -99.0 -99.0 -99.0 -99.0-99.00 -99.0 -99.0 -99.0 -99.0 -99.0  -99.  -99.
   19.-99.00 -99.0 -99.0 -99.0 -99.0 -99.0 -99.0 -99.0 -99.0 -99.0-99.00 -99.0 -99.0 -99.0 -99.0 -99.0  -99.  -99.
   28.-99.00 -99.0 -99.0 -99.0 -99.0 -99.0 -99.0 -99.0 -99.0 -99.0-99.00 -99.0 -99.0 -99.0 -99.0 -99.0  -99.  -99.
   38.-99.00 -99.0 -99.0 -99.0 -99.0 -99.0 -99.0 -99.0 -99.0 -99.0-99.00 -99.0 -99.0 -99.0 -99.0 -99.0  -99.  -99.
   51.-99.00 -99.0 -99.0 -99.0 -99.0 -99.0 -99.0 -99.0 -99.0 -99.0-99.00 -99.0 -99.0 -99.0 -99.0 -99.0  -99.  -99.
                    
    5.-99.00-99.00-99.00-99.00
   15.-99.00-99.00-99.00-99.00
   19.-99.00-99.00-99.00-99.00
   28.-99.00-99.00-99.00-99.00
   38.-99.00-99.00-99.00-99.00
   51.-99.00-99.00-99.00-99.00
*CULTIVAR           
IB0020 RD 23            IB0001 528.6 156.5 387.4  12.6  52.7 0.022  1.00 83.00  29.0  15.0  15.0
