*MODEL INPUT FILE            B     1     1     1   999     0
*FILES              
MODEL          MZCER048
FILEX          BRPI0202.MZX                                                                                 
FILEA          BRPI0202.MZA                                                                                 
FILET          BRPI0202.MZT                                                                                 
SPECIES        MZCER048.SPE C:\DSSAT48\GENOTYPE\                                                            
ECOTYPE        MZCER048.ECO C:\DSSAT48\GENOTYPE\                                                            
CULTIVAR       MZCER048.CUL C:\DSSAT48\GENOTYPE\                                                            
PESTS          MZCER048.PST C:\DSSAT48\PEST\                                                                
SOILS          BR.SOL       C:\DSSAT48\SOIL\                                                                
WEATHERW       BRPI0201.WTH C:\DSSAT48\Weather\                                                             
OUTPUT         OVERVIEW
*SIMULATION CONTROL 
                   1     1     S 2002060  2150 2002 Maize Experiment Ir 
                   Y     Y     N     N     N     N     N     Y     M
                   M     M     E     R     S     R     R     1     G     R     2     D     0
                   R     R     R     N     M
                   N     Y     Y     1     Y     Y     Y     Y     N     N     Y     N     N
!AUTOMATIC MANAGEM  
                   -99     -99   40.  100.   30.   40.   10.
                 40.   50.  100. GS000 IR004  10.0 0.900
                 30.   50.   25. FE001 GS000
                100.     1   20.
                     0     -99  100.    0.
*EXP.DETAILS        
  1BRPI0202 MZ MAIZE IRRIGATED AND RAINFALL                                
*TREATMENTS         
  1 1 0 0 AG9010 - Rainfed         
*CULTIVARS          
   MZ IB0171 AG9010          
*FIELDS             
   BRPI0001 BRPI0201   0.0    0. DR000    0. 100.0 00000 C      120. BRPI020001-99.00 -99.0
      0.0000000000    0.0000000000     0.000               1.0  100.   1.0   0.0   -99   -99
*INITIAL CONDITIONS 
   MZ    2002060     0     0  1.00  1.00 -99.0  5100  1.50  0.00  100.   15.
      5. 0.250 0.400  3.90
     15. 0.250 0.400  3.90
     20. 0.250 0.400  3.90
     30. 0.250 0.400  3.90
     40. 0.250 0.400  3.90
     67. 0.260 0.400  3.90
     93. 0.260 0.400  3.90
    120. 0.260 0.400  3.90
*PLANTING DETAILS   
   2002072 2002078   7.0   5.0     S     R   80.   45.   5.0  -99.  -99. -99.0 -99.0   0.0
*IRRIGATION         
   1.000    0.    0.    0. GS000 IR001   0.0
*FERTILIZERS        
   2002072 FE027 AP001    5.   20.  -99.  -99.  -99.  -99.   -99
   2002093 FE005 AP003    0.   50.    0.    0.    0.    0.   -99
*RESIDUES           
*CHEMICALS          
*TILLAGE            
*ENVIRONMENT        
*HARVEST            
*SOIL               
 BRPI020001  ESALQ       C      120. TERRA ROXA (RAINFED)                              
 PIRACICABA  BRAZIL      -22.430 -47.250 Typic Eutrudox                                    
 R      0.14   6.0  0.30   83.  1.00  0.90 IB00  IB00  IB00  -99  
    5.       0.170 0.280 0.450 1.000 0.100  0.90 1.400  61.0  17.0   0.0 0.100  5.00-99.00 10.00-99.00
   15.       0.170 0.280 0.450 1.000 0.100  0.90 1.400  61.0  17.0   0.0 0.100  5.00-99.00 10.00-99.00
   20.       0.170 0.280 0.450 1.000 0.100  0.90 1.400  61.0  17.0   0.0 0.100  5.00-99.00 10.00-99.00
   30.       0.180 0.290 0.450 1.000 0.100  0.90 1.100  61.0  19.0   0.0 0.100  5.00-99.00  9.00-99.00
   40.       0.180 0.290 0.450 1.000 0.100  0.90 1.100  61.0  19.0   0.0 0.100  5.00-99.00  9.00-99.00
   67.       0.180 0.280 0.460 0.600 0.100  1.10 1.400  61.0  17.0   0.0 0.100  5.00-99.00  8.00-99.00
   93.       0.180 0.280 0.460 0.600 0.100  1.10 1.400  61.0  17.0   0.0 0.100  5.00-99.00  8.00-99.00
  120.       0.180 0.280 0.460 0.600 0.100  1.10 1.400  61.0  17.0   0.0 0.100  5.00-99.00  8.00-99.00
                    
    5.-99.00 -99.0 -99.0 -99.0 -99.0 -99.0 -99.0 -99.0 -99.0 -99.0-99.00 -99.0 -99.0 -99.0 -99.0 -99.0  -99.  -99.
   15.-99.00 -99.0 -99.0 -99.0 -99.0 -99.0 -99.0 -99.0 -99.0 -99.0-99.00 -99.0 -99.0 -99.0 -99.0 -99.0  -99.  -99.
   20.-99.00 -99.0 -99.0 -99.0 -99.0 -99.0 -99.0 -99.0 -99.0 -99.0-99.00 -99.0 -99.0 -99.0 -99.0 -99.0  -99.  -99.
   30.-99.00 -99.0 -99.0 -99.0 -99.0 -99.0 -99.0 -99.0 -99.0 -99.0-99.00 -99.0 -99.0 -99.0 -99.0 -99.0  -99.  -99.
   40.-99.00 -99.0 -99.0 -99.0 -99.0 -99.0 -99.0 -99.0 -99.0 -99.0-99.00 -99.0 -99.0 -99.0 -99.0 -99.0  -99.  -99.
   67.-99.00 -99.0 -99.0 -99.0 -99.0 -99.0 -99.0 -99.0 -99.0 -99.0-99.00 -99.0 -99.0 -99.0 -99.0 -99.0  -99.  -99.
   93.-99.00 -99.0 -99.0 -99.0 -99.0 -99.0 -99.0 -99.0 -99.0 -99.0-99.00 -99.0 -99.0 -99.0 -99.0 -99.0  -99.  -99.
  120.-99.00 -99.0 -99.0 -99.0 -99.0 -99.0 -99.0 -99.0 -99.0 -99.0-99.00 -99.0 -99.0 -99.0 -99.0 -99.0  -99.  -99.
                    
    5.-99.00-99.00-99.00-99.00
   15.-99.00-99.00-99.00-99.00
   20.-99.00-99.00-99.00-99.00
   30.-99.00-99.00-99.00-99.00
   40.-99.00-99.00-99.00-99.00
   67.-99.00-99.00-99.00-99.00
   93.-99.00-99.00-99.00-99.00
  120.-99.00-99.00-99.00-99.00
*CULTIVAR           
IB0171 AG9010           IB0001  196.0 0.500 758.0 830.0  5.10 40.00
