*MODEL INPUT FILE            B     1     1     4   999     0
*FILES              
MODEL          CRGRO048
FILEX          UFBR9401.TMX                                                                                 
FILEA          UFBR9401.TMA                                                                                 
FILET          UFBR9401.TMT                                                                                 
SPECIES        TMGRO048.SPE C:\DSSAT48\GENOTYPE\                                                            
ECOTYPE        TMGRO048.ECO C:\DSSAT48\GENOTYPE\                                                            
CULTIVAR       TMGRO048.CUL C:\DSSAT48\GENOTYPE\                                                            
PESTS          TMGRO048.PST C:\DSSAT48\PEST\                                                                
SOILS          SOIL.SOL     C:\DSSAT48\SOIL\                                                                
WEATHERW       UFBR9401.WTH C:\DSSAT48\Weather\                                                             
OUTPUT         OVERVIEW
*SIMULATION CONTROL 
                   1     1     S 1994050  2150 FERT TRIAL               
                   N     N     N     N     N     N     N     N     M
                   M     M     E     R     S     L     R     1     G     R     2     D     0
                   R     A     R     N     M
                   N     Y     Y     1     Y     Y     Y     Y     N     N     Y     N     N
!AUTOMATIC MANAGEM  
                   -99     -99   40.  100.   30.   45.   40.
                 30.   80.  100. GS000 SI001  10.0 1.000
                200.   50.   25. SI001 SI001
                100.    60   20.
                   160     -99   75.    0.
*EXP.DETAILS        
  1UFBR9401 TM 1994 FERTILIZER TRIAL, SUNNY, BRADENTON                     
*TREATMENTS         
  4 1 0 0 Sunny, Avg, auto,N-off   
*CULTIVARS          
   TM TM0007 Sunny S-D 2010 C
*FIELDS             
   UFBR0001 UFBR9401   0.0    0. DR000    0. 100.0  0000 SA     180. UFBR950001-99.00 -99.0
      0.0000000000    0.0000000000     0.000               1.0  100.   1.0   0.0   -99   -99
*INITIAL CONDITIONS 
   PR    1994060     1     0  1.00  1.00 -99.0     0  0.00  0.00  100.   15.
      5. 0.133   0.0   0.0
     15. 0.133   0.0   0.0
     18. 0.133   0.0   0.0
     27. 0.111   0.0   0.0
     36. 0.111   0.0   0.0
     49. 0.111   0.0   0.0
     61. 0.111   0.0   0.0
     74. 0.111   0.0   0.0
     81. 0.248   0.0   0.0
    100. 0.159   0.0   0.0
    119. 0.159   0.0   0.0
    146. 0.252   0.0   0.0
    173. 0.252   0.0   0.0
    190. 0.260   0.0   0.0
    203. 0.283   0.0   0.0
*PLANTING DETAILS   
   1994060     -99   1.1   1.1     T     R  152.   90.   1.0    3.   25.  25.0   1.0   0.0
*IRRIGATION         
   0.950    5.   75.  -99. GS000 IR001   0.0
   1994061 IR007   3.0
   1994062 IR007   3.0
   1994063 IR007   3.0
   1994064 IR007   3.0
   1994065 IR007   3.0
   1994066 IR007   3.0
   1994067 IR007   3.0
   1994068 IR007   3.0
   1994069 IR007   3.0
   1994070 IR007   3.0
   1994071 IR007   3.0
   1994072 IR007   3.0
   1994073 IR007   3.0
   1994074 IR007   3.0
   1994075 IR007   3.0
   1994076 IR007   3.0
   1994077 IR007   3.0
   1994078 IR007   3.0
   1994079 IR007   3.0
   1994080 IR007   4.0
   1994081 IR007   4.0
   1994082 IR007   3.0
   1994083 IR007   3.0
   1994084 IR007   4.0
   1994085 IR007   3.0
   1994086 IR007   3.0
   1994087 IR007   4.0
   1994088 IR007   4.0
   1994089 IR007   3.0
   1994090 IR007   3.0
   1994091 IR007   3.0
   1994092 IR007   4.0
   1994093 IR007   4.0
   1994094 IR007   4.0
   1994095 IR007   3.0
   1994096 IR007   4.0
   1994097 IR007   4.0
   1994098 IR007   4.0
   1994099 IR007   4.0
   1994100 IR007   4.0
   1994101 IR007   4.0
   1994102 IR007   5.0
   1994103 IR007   4.0
   1994104 IR007   4.0
   1994105 IR007   4.0
   1994106 IR007   4.0
   1994107 IR007   4.0
   1994108 IR007   4.0
   1994109 IR007   4.0
   1994110 IR007   4.0
   1994111 IR007   3.0
   1994112 IR007   3.0
   1994113 IR007   4.0
   1994113 IR007   4.0
   1994114 IR007   3.0
   1994115 IR007   4.0
   1994116 IR007   4.0
   1994117 IR007   4.0
   1994118 IR007   5.0
   1994119 IR007   5.0
   1994120 IR007   4.0
   1994121 IR007   5.0
   1994122 IR007   5.0
   1994123 IR007   5.0
   1994124 IR007   5.0
   1994125 IR007   5.0
   1994126 IR007   5.0
   1994127 IR007   5.0
   1994128 IR007   4.0
   1994129 IR007   5.0
   1994130 IR007   4.0
   1994131 IR007   5.0
   1994132 IR007   4.0
   1994133 IR007   4.0
   1994134 IR007   5.0
   1994135 IR007   5.0
   1994136 IR007   5.0
   1994137 IR007   3.0
   1994138 IR007   3.0
   1994139 IR007   5.0
   1994140 IR007   4.0
   1994141 IR007   5.0
   1994142 IR007   5.0
   1994143 IR007   5.0
   1994144 IR007   5.0
   1994145 IR007   5.0
   1994146 IR007   5.0
   1994147 IR007   5.0
   1994148 IR007   5.0
   1994149 IR007   4.0
   1994150 IR007   4.0
   1994151 IR007   5.0
   1994152 IR007   5.0
   1994153 IR007   3.0
   1994154 IR007   2.0
   1994155 IR007   2.0
   1994156 IR007   4.0
   1994157 IR007   4.0
   1994158 IR007   3.0
   1994159 IR007   3.0
   1994160 IR007   5.0
   1994161 IR007   5.0
   1994162 IR007   5.0
   1994163 IR007   6.0
   1994164 IR007   6.0
   1994165 IR007   4.0
   1994166 IR007   6.0
   1994167 IR007   6.0
   1994168 IR007   6.0
   1994169 IR007   6.0
   1994160 IR007   6.0
   1994161 IR007   6.0
   1994162 IR007   6.0
   1994163 IR007   6.0
   1994164 IR007   6.0
   1994165 IR007   6.0
   1994166 IR007   6.0
   1994167 IR007   6.0
   1994168 IR007   6.0
   1994169 IR007   5.0
   1994170 IR007   5.0
   1994171 IR007   5.0
   1994172 IR007   5.0
   1994173 IR007   5.0
   1994174 IR007   5.0
   1994175 IR007   5.0
*FERTILIZERS        
   1994050 FE001 AP001   10.  255.    0.    0.    0.    0.   -99
*RESIDUES           
*CHEMICALS          
*TILLAGE            
*ENVIRONMENT        
*HARVEST            
     94160 GS000   -99   -99  100.    0.
*SOIL               
 UFBR950001  SCS         SA     180.   Eaugallie fine sand (IMPERVIOUS LAYER AT 120 CM)
 BRADENTON   U.S.A.       27.000  82.300 SANDY, SILICEOUS, HYPERTHERMIC, ALFIC, HAPLAQUOD  
 G      0.13  12.7  0.05   87.  1.00  0.97 IB001 IB001 IB001 -99  
    5.       0.022 0.133 0.423 1.000  18.4  1.22 1.020   0.8   1.1   0.0 0.090  6.00-99.00  3.90-99.00
   15.       0.022 0.133 0.423 1.000  18.4  1.22 1.020   0.8   1.1   0.0 0.090  6.00-99.00  3.90-99.00
   18.       0.022 0.133 0.423 1.000  18.4  1.22 1.020   0.8   1.1   0.0 0.090  6.00-99.00  3.90-99.00
   27.       0.022 0.111 0.430 0.300  15.8  1.51 0.700   0.6   2.9   0.0 0.060  5.00-99.00  2.60-99.00
   36.       0.022 0.111 0.430 0.300  15.8  1.51 0.700   0.6   2.9   0.0 0.060  5.00-99.00  2.60-99.00
   49.       0.022 0.111 0.430 0.010  21.1  1.62 0.140   0.6   1.9   0.0 0.010  4.80-99.00  0.20-99.00
   61.       0.022 0.111 0.430 0.010  21.1  1.62 0.140   0.6   1.9   0.0 0.010  4.80-99.00  0.20-99.00
   74.       0.022 0.111 0.430 0.010  21.1  1.62 0.140   0.6   1.9   0.0 0.010  4.80-99.00  0.20-99.00
   81.       0.035 0.248 0.396 0.000  22.4  1.60 1.200   3.7   4.8   0.0 0.100  4.50-99.00  8.10-99.00
  100.       0.013 0.159 0.374 0.000    0.  1.66 0.600   1.5   2.6   0.0 0.050  4.80-99.00  2.80-99.00
  119.       0.013 0.159 0.374 0.000    0.  1.66 0.600   1.5   2.6   0.0 0.050  4.80-99.00  2.80-99.00
  146.       0.028 0.252 0.374 0.000  7.10  1.66 0.530   2.4   2.9   0.0 0.040  4.90-99.00  4.10-99.00
  173.       0.028 0.252 0.374 0.000  7.10  1.66 0.530   2.4   2.9   0.0 0.040  4.90-99.00  4.10-99.00
  190.       0.070 0.260 0.324 0.000 0.500  1.79 0.210  13.0   3.0   0.0 0.020  4.80-99.00  5.70-99.00
  203.       0.134 0.283 0.294 0.000 0.100  1.87 0.140  21.8   2.1   0.0 0.010  4.20 99.00  6.70-99.00
                    
    5.-99.00 -99.0 -99.0 -99.0 -99.0 -99.0 -99.0 -99.0 -99.0 -99.0-99.00 -99.0 -99.0 -99.0 -99.0 -99.0  -99.  -99.
   15.-99.00 -99.0 -99.0 -99.0 -99.0 -99.0 -99.0 -99.0 -99.0 -99.0-99.00 -99.0 -99.0 -99.0 -99.0 -99.0  -99.  -99.
   18.-99.00 -99.0 -99.0 -99.0 -99.0 -99.0 -99.0 -99.0 -99.0 -99.0-99.00 -99.0 -99.0 -99.0 -99.0 -99.0  -99.  -99.
   27.-99.00 -99.0 -99.0 -99.0 -99.0 -99.0 -99.0 -99.0 -99.0 -99.0-99.00 -99.0 -99.0 -99.0 -99.0 -99.0  -99.  -99.
   36.-99.00 -99.0 -99.0 -99.0 -99.0 -99.0 -99.0 -99.0 -99.0 -99.0-99.00 -99.0 -99.0 -99.0 -99.0 -99.0  -99.  -99.
   49.-99.00 -99.0 -99.0 -99.0 -99.0 -99.0 -99.0 -99.0 -99.0 -99.0-99.00 -99.0 -99.0 -99.0 -99.0 -99.0  -99.  -99.
   61.-99.00 -99.0 -99.0 -99.0 -99.0 -99.0 -99.0 -99.0 -99.0 -99.0-99.00 -99.0 -99.0 -99.0 -99.0 -99.0  -99.  -99.
   74.-99.00 -99.0 -99.0 -99.0 -99.0 -99.0 -99.0 -99.0 -99.0 -99.0-99.00 -99.0 -99.0 -99.0 -99.0 -99.0  -99.  -99.
   81.-99.00 -99.0 -99.0 -99.0 -99.0 -99.0 -99.0 -99.0 -99.0 -99.0-99.00 -99.0 -99.0 -99.0 -99.0 -99.0  -99.  -99.
  100.-99.00 -99.0 -99.0 -99.0 -99.0 -99.0 -99.0 -99.0 -99.0 -99.0-99.00 -99.0 -99.0 -99.0 -99.0 -99.0  -99.  -99.
  119.-99.00 -99.0 -99.0 -99.0 -99.0 -99.0 -99.0 -99.0 -99.0 -99.0-99.00 -99.0 -99.0 -99.0 -99.0 -99.0  -99.  -99.
  146.-99.00 -99.0 -99.0 -99.0 -99.0 -99.0 -99.0 -99.0 -99.0 -99.0-99.00 -99.0 -99.0 -99.0 -99.0 -99.0  -99.  -99.
  173.-99.00 -99.0 -99.0 -99.0 -99.0 -99.0 -99.0 -99.0 -99.0 -99.0-99.00 -99.0 -99.0 -99.0 -99.0 -99.0  -99.  -99.
  190.-99.00 -99.0 -99.0 -99.0 -99.0 -99.0 -99.0 -99.0 -99.0 -99.0-99.00 -99.0 -99.0 -99.0 -99.0 -99.0  -99.  -99.
  203.-99.00 -99.0 -99.0 -99.0 -99.0 -99.0 -99.0 -99.0 -99.0 -99.0-99.00 -99.0 -99.0 -99.0 -99.0 -99.0  -99.  -99.
                    
    5.-99.00-99.00-99.00-99.00
   15.-99.00-99.00-99.00-99.00
   18.-99.00-99.00-99.00-99.00
   27.-99.00-99.00-99.00-99.00
   36.-99.00-99.00-99.00-99.00
   49.-99.00-99.00-99.00-99.00
   61.-99.00-99.00-99.00-99.00
   74.-99.00-99.00-99.00-99.00
   81.-99.00-99.00-99.00-99.00
  100.-99.00-99.00-99.00-99.00
  119.-99.00-99.00-99.00-99.00
  146.-99.00-99.00-99.00-99.00
  173.-99.00-99.00-99.00-99.00
  190.-99.00-99.00-99.00-99.00
  203.-99.00-99.00-99.00-99.00
*CULTIVAR           
TM0007 Sunny S-D 2010 C TM0001 12.33 0.000 24.40  3.00 19.00 45.20 52.00 1.360 300.0 300.0  0.73 0.004 26.00300.00 58.00   8.5 0.300 0.050
