*MODEL INPUT FILE            B     1     1     1   999     0
*FILES              
MODEL          CRGRO048
FILEX          TRKO1601.SUX                                                                                 
FILEA          TRKO1601.SUA                                                                                 
FILET          TRKO1601.SUT                                                                                 
SPECIES        SUGRO048.SPE C:\DSSAT48\GENOTYPE\                                                            
ECOTYPE        SUGRO048.ECO C:\DSSAT48\GENOTYPE\                                                            
CULTIVAR       SUGRO048.CUL C:\DSSAT48\GENOTYPE\                                                            
PESTS          SUGRO048.PST C:\DSSAT48\PEST\                                                                
SOILS          TR.SOL       C:\DSSAT48\SOIL\                                                                
WEATHERW       TRKO1601.WTH C:\DSSAT48\Weather\                                                             
OUTPUT         OVERVIEW
*SIMULATION CONTROL 
                   1     1     S 2016133  2150 Simulation Options       
                   Y     Y     N     N     N     N     N     Y     M
                   M     M     E     R     S     L     R     1     G     R     2     D     0
                   R     R     R     R     D
                   N     Y     A     1     Y     Y     Y     Y     Y     Y     A     Y     Y
!AUTOMATIC MANAGEM  
                   -99     -99   40.  100.   30.   40.   10.
                 30.   50.  100. GS000 IR001  10.0 1.000
                 30.   50.   25. FE001 GS000
                100.     1   20.
                     0     -99  100.    0.
*EXP.DETAILS        
  1TRKO1601 SU KONYA SUNFLOWER EXPERIMENT (2016)                           
*TREATMENTS         
  1 1 1 0 Rainfed                  
*CULTIVARS          
   SU IB0001 Ekllor          
*FIELDS             
   TRKO1601 TRKO1601   0.0  -99. DR000  -99. 100.0   -99 C      -99. TRKON20160-99.00 -99.0
     37.7999992371   32.2999992371  1072.000               1.0  100.   1.0 -99.0   -99   -99
*INITIAL CONDITIONS 
   SU    2016133     0     0  1.00  1.00 -99.0     0  0.00  0.00  100.    0.
      5. 0.298 0.100 0.700
     15. 0.298 0.100 0.700
     30. 0.298 0.100 0.700
     45. 0.289 0.100 0.700
     60. 0.289 0.100 0.700
     90. 0.297 0.100 0.700
    120. 0.406 0.100 0.700
    200. 0.406 0.100 0.700
*PLANTING DETAILS   
   2016133 2016151   5.7   5.7     S     R   70.  -99.   4.0  -99.  -99. -99.0 -99.0 -99.0
*IRRIGATION         
   1.000   30.   50.  100. GS000 IR001  10.0
   2016133 IR005  25.0
   2016151 IR005  25.0
   2016172 IR005  35.8
   2016179 IR005  36.5
*FERTILIZERS        
   2016133 FE001 AP004   15.   99.  -99.  -99.  -99.  -99.   -99
   2016133 FE006 AP002   15.   36.   40.  -99.  -99.  -99.   -99
   2016172 FE001 AP002   15.   16.  -99.  -99.  -99.  -99.   -99
   2016172 FE005 AP002   15.   23.  -99.  -99.  -99.  -99.   -99
*RESIDUES           
*CHEMICALS          
*TILLAGE            
*ENVIRONMENT        
*HARVEST            
       133 GS000   -99   -99  100.    0.
*SOIL               
 TRKON20160  -99         C      -99.   Konya-Turkey !decr LL by 0.04, kjb,4/14/22,LL&DU
 Konya       Turkey       37.800  32.510 Clay                                              
 BN     0.13   6.0  0.40   61.  1.00  0.82 IB001 IB001 IB001 -99  
    5.       0.199 0.331 0.405 1.000  1.20  1.32 0.840  54.6  24.2 -99.0  -9.0  7.70-99.00-99.00-99.00
   15.       0.199 0.331 0.405 1.000  1.20  1.32 0.840  54.6  24.2 -99.0  -9.0  7.70-99.00-99.00-99.00
   30.       0.199 0.331 0.405 1.000  1.20  1.32 0.840  54.6  24.2 -99.0  -9.0  7.70-99.00-99.00-99.00
   45.       0.196 0.317 0.385 0.750  1.20  1.33 0.530  54.7  24.2 -99.0  -9.0  7.80-99.00-99.00-99.00
   60.       0.196 0.317 0.385 0.750  1.20  1.33 0.530  54.7  24.2 -99.0  -9.0  7.80-99.00-99.00-99.00
   90.       0.196 0.343 0.400 0.400  1.20  1.34 0.440  58.6  21.1 -99.0  -9.0  7.80-99.00-99.00-99.00
  120.       0.247 0.418 0.485 0.300  1.20  1.38 0.320  58.8  21.1 -99.0  -9.0  7.80-99.00-99.00-99.00
  200.       0.247 0.418 0.491 0.110  1.20  1.38 0.260  58.8  21.1 -99.0  -9.0  7.80-99.00-99.00-99.00
                    
    5.-99.00 -99.0 -99.0 -99.0 -99.0 -99.0 -99.0 -99.0 -99.0 -99.0-99.00 -99.0 -99.0 -99.0 -99.0 -99.0  -99.  -99.
   15.-99.00 -99.0 -99.0 -99.0 -99.0 -99.0 -99.0 -99.0 -99.0 -99.0-99.00 -99.0 -99.0 -99.0 -99.0 -99.0  -99.  -99.
   30.-99.00 -99.0 -99.0 -99.0 -99.0 -99.0 -99.0 -99.0 -99.0 -99.0-99.00 -99.0 -99.0 -99.0 -99.0 -99.0  -99.  -99.
   45.-99.00 -99.0 -99.0 -99.0 -99.0 -99.0 -99.0 -99.0 -99.0 -99.0-99.00 -99.0 -99.0 -99.0 -99.0 -99.0  -99.  -99.
   60.-99.00 -99.0 -99.0 -99.0 -99.0 -99.0 -99.0 -99.0 -99.0 -99.0-99.00 -99.0 -99.0 -99.0 -99.0 -99.0  -99.  -99.
   90.-99.00 -99.0 -99.0 -99.0 -99.0 -99.0 -99.0 -99.0 -99.0 -99.0-99.00 -99.0 -99.0 -99.0 -99.0 -99.0  -99.  -99.
  120.-99.00 -99.0 -99.0 -99.0 -99.0 -99.0 -99.0 -99.0 -99.0 -99.0-99.00 -99.0 -99.0 -99.0 -99.0 -99.0  -99.  -99.
  200.-99.00 -99.0 -99.0 -99.0 -99.0 -99.0 -99.0 -99.0 -99.0 -99.0-99.00 -99.0 -99.0 -99.0 -99.0 -99.0  -99.  -99.
                    
    5.-99.00-99.00-99.00-99.00
   15.-99.00-99.00-99.00-99.00
   30.-99.00-99.00-99.00-99.00
   45.-99.00-99.00-99.00-99.00
   60.-99.00-99.00-99.00-99.00
   90.-99.00-99.00-99.00-99.00
  120.-99.00-99.00-99.00-99.00
  200.-99.00-99.00-99.00-99.00
*CULTIVAR           
IB0001 Ekllor           SU0703 15.00-0.086 40.40  7.40 10.50 43.60 13.79 1.800 155.0 180.0  0.78 0.070 28.00  2.20  4.80  71.2 0.140 0.500
