*MODEL INPUT FILE            B     1     1     1   999     0
*FILES              
MODEL          MZCER048
FILEX          IBWA8301.MZX                                                                                 
FILEA          IBWA8301.MZA                                                                                 
FILET          IBWA8301.MZT                                                                                 
SPECIES        MZCER048.SPE C:\DSSAT48\GENOTYPE\                                                            
ECOTYPE        MZCER048.ECO C:\DSSAT48\GENOTYPE\                                                            
CULTIVAR       MZCER048.CUL C:\DSSAT48\GENOTYPE\                                                            
PESTS          MZCER048.PST C:\DSSAT48\PEST\                                                                
SOILS          SOIL.SOL     C:\DSSAT48\SOIL\                                                                
WEATHERW       IBWA8302.WTH C:\DSSAT48\Weather\                                                             
OUTPUT         OVERVIEW
*SIMULATION CONTROL 
                   1     1     S 1983326  2150 N X VAR WAPIO, IBSNAT EX 
                   Y     Y     N     N     N     N     N     Y     M
                   M     M     E     R     S     C     R     1     G     R     2     D     0
                   R     R     R     R     M
                   N     Y     Y     1     Y     N     Y     Y     N     N     Y     N     N
!AUTOMATIC MANAGEM  
                   -99     -99   40.  100.   30.   40.   10.
                 30.   50.  100. GS000 IR001  10.0 1.000
                 30.   50.   25. FE001 GS000
                100.     1   20.
                     0     -99  100.    0.
*EXP.DETAILS        
  1IBWA8301 MZ N X VAR WAPIO, IBSNAT EXP.1983-4                            
*TREATMENTS         
  1 1 0 0 X304C 0 kg N/ha          
*CULTIVARS          
   MZ IB0063 PIO X 304C      
*FIELDS             
   IBWA0001 IBWA8302   0.0    0. DR000    0. 100.0 00000 -99    110. IBMZ910013-99.00 -99.0
      0.0000000000    0.0000000000     0.000               1.0  100.   1.0   0.0   -99   -99
*INITIAL CONDITIONS 
   MZ    1983326   200     0  1.00  1.00 -99.0  2000  0.53  0.00  100.   30.
      5. 0.260  3.40  3.60
     15. 0.260  2.80  2.80
     30. 0.300  1.90  1.40
     40. 0.370  1.10 0.700
     50. 0.370  1.10 0.700
     60. 0.320 0.900 0.500
     70. 0.320 0.900 0.500
     90. 0.290 0.400 0.500
    110. 0.320 0.100 0.400
*PLANTING DETAILS   
   1983334     -99   5.8   5.8     S     R   75.    0.   5.0  -99.  -99. -99.0 -99.0   0.0
*IRRIGATION         
   1.000   30.   75.  -99. GS000 IR001   0.0
   1983337 IR001  43.0
   1983339 IR001  22.0
   1983341 IR001  18.0
   1983350 IR001   8.0
   1983355 IR001  11.0
   1983357 IR001   6.0
   1983364 IR001   6.0
   1984006 IR001   6.0
   1984009 IR001   6.0
   1984013 IR001   5.0
   1984019 IR001   5.0
   1984020 IR001   5.0
   1984026 IR001  19.0
   1984041 IR001   9.0
   1984043 IR001   9.0
   1984055 IR001  15.0
   1984059 IR001  10.0
   1984069 IR001  17.0
   1984073 IR001  13.0
   1984075 IR001  14.0
   1984078 IR001  15.0
   1984082 IR001  12.0
   1984084 IR001  18.0
   1984088 IR001  12.0
*FERTILIZERS        
*RESIDUES           
*CHEMICALS          
*TILLAGE            
*ENVIRONMENT        
*HARVEST            
*SOIL               
 IBMZ910013  IBSNAT      -99    110.   Waipio                                          
 Waipio,HI   USA          -0.009  -0.099 Clayey, kaolinitic, isohyperth, Tropeptic Eutrusto
 -99    0.14   5.0  0.60   60.  1.00  1.00 IB001 IB001 IB001 -99  
    5.       0.220 0.350 0.550 1.000  -99.  1.00 2.270 -99.0 -99.0 -99.0  -9.0  6.30-99.00-99.00-99.00
   15.       0.230 0.350 0.550 1.000  -99.  1.00 2.270 -99.0 -99.0 -99.0  -9.0  6.30-99.00-99.00-99.00
   30.       0.240 0.350 0.550 0.800  -99.  1.05 1.100 -99.0 -99.0 -99.0  -9.0  5.80-99.00-99.00-99.00
   40.       0.250 0.370 0.480 0.400  -99.  1.17 1.410 -99.0 -99.0 -99.0  -9.0  5.80-99.00-99.00-99.00
   50.       0.250 0.370 0.480 0.400  -99.  1.17 1.410 -99.0 -99.0 -99.0  -9.0  5.80-99.00-99.00-99.00
   60.       0.260 0.380 0.460 0.200  -99.  1.22 0.590 -99.0 -99.0 -99.0  -9.0  6.00-99.00-99.00-99.00
   70.       0.260 0.380 0.460 0.200  -99.  1.22 0.590 -99.0 -99.0 -99.0  -9.0  6.00-99.00-99.00-99.00
   90.       0.250 0.380 0.460 0.050  -99.  1.22 0.360 -99.0 -99.0 -99.0  -9.0  6.00-99.00-99.00-99.00
  110.       0.260 0.400 0.480 0.020  -99.  1.17 0.270 -99.0 -99.0 -99.0  -9.0  6.00-99.00-99.00-99.00
                    
    5.-99.00 -99.0 -99.0 -99.0 -99.0 -99.0 -99.0 -99.0 -99.0 -99.0-99.00 -99.0 -99.0 -99.0 -99.0 -99.0  -99.  -99.
   15.-99.00 -99.0 -99.0 -99.0 -99.0 -99.0 -99.0 -99.0 -99.0 -99.0-99.00 -99.0 -99.0 -99.0 -99.0 -99.0  -99.  -99.
   30.-99.00 -99.0 -99.0 -99.0 -99.0 -99.0 -99.0 -99.0 -99.0 -99.0-99.00 -99.0 -99.0 -99.0 -99.0 -99.0  -99.  -99.
   40.-99.00 -99.0 -99.0 -99.0 -99.0 -99.0 -99.0 -99.0 -99.0 -99.0-99.00 -99.0 -99.0 -99.0 -99.0 -99.0  -99.  -99.
   50.-99.00 -99.0 -99.0 -99.0 -99.0 -99.0 -99.0 -99.0 -99.0 -99.0-99.00 -99.0 -99.0 -99.0 -99.0 -99.0  -99.  -99.
   60.-99.00 -99.0 -99.0 -99.0 -99.0 -99.0 -99.0 -99.0 -99.0 -99.0-99.00 -99.0 -99.0 -99.0 -99.0 -99.0  -99.  -99.
   70.-99.00 -99.0 -99.0 -99.0 -99.0 -99.0 -99.0 -99.0 -99.0 -99.0-99.00 -99.0 -99.0 -99.0 -99.0 -99.0  -99.  -99.
   90.-99.00 -99.0 -99.0 -99.0 -99.0 -99.0 -99.0 -99.0 -99.0 -99.0-99.00 -99.0 -99.0 -99.0 -99.0 -99.0  -99.  -99.
  110.-99.00 -99.0 -99.0 -99.0 -99.0 -99.0 -99.0 -99.0 -99.0 -99.0-99.00 -99.0 -99.0 -99.0 -99.0 -99.0  -99.  -99.
                    
    5.-99.00-99.00-99.00-99.00
   15.-99.00-99.00-99.00-99.00
   30.-99.00-99.00-99.00-99.00
   40.-99.00-99.00-99.00-99.00
   50.-99.00-99.00-99.00-99.00
   60.-99.00-99.00-99.00-99.00
   70.-99.00-99.00-99.00-99.00
   90.-99.00-99.00-99.00-99.00
  110.-99.00-99.00-99.00-99.00
*CULTIVAR           
IB0063 PIO X 304C       IB0001  342.4 0.243 944.5 756.6  5.50 38.90
