*MODEL INPUT FILE            B     1     1     1   999     0
*FILES              
MODEL          MZCER048
FILEX          GHWA0401.MZX                                                                                 
FILEA          GHWA0401.MZA                                                                                 
FILET          GHWA0401.MZT                                                                                 
SPECIES        MZCER048.SPE C:\DSSAT48\GENOTYPE\                                                            
ECOTYPE        MZCER048.ECO C:\DSSAT48\GENOTYPE\                                                            
CULTIVAR       MZCER048.CUL C:\DSSAT48\GENOTYPE\                                                            
PESTS          MZCER048.PST C:\DSSAT48\PEST\                                                                
SOILS          GH.SOL       C:\DSSAT48\SOIL\                                                                
WEATHERW       GHWA0301.WTH C:\DSSAT48\Weather\                                                             
OUTPUT         OVERVIEW
*SIMULATION CONTROL 
                   1     1     S 2003283  5242 Maize (2004)             
                   Y     Y     N     Y     N     N     N     N     M
                   M     M     E     R     S     C     R     1     P     S     2     D     0
                   R     N     R     N     R
                   N     Y     Y     1     Y     Y     Y     Y     Y     N     Y     N     Y
!AUTOMATIC MANAGEM  
                   -99     -99   40.  100.   30.   40.   10.
                  0.    0.    0. GS000 IR001   0.0 1.000
                 30.   50.   25. FE001 GS000
                100.     0    0.
                     0     -99  100.    0.
*EXP.DETAILS        
  1GHWA0401 MZ ON-STATION NXP (EXPERIMENT NO.2) 9 TRT                      
*TREATMENTS         
  1 1 1 0 N0 P0                    
*CULTIVARS          
   MZ GH0010 OBATANPA        
*FIELDS             
   UFWA0001 GHWA0301   0.0  -99.   -99  -99. 100.0   -99 SL     -99. GHWA040001-99.00 -99.0
      9.0000000000   -2.0000000000   390.000               1.0  100.   1.0 -99.0 FH301     0
*INITIAL CONDITIONS 
   MZ    2003283   150     0  1.00  1.00 -99.0  1512  1.10  0.10    0.    0.
      5. 0.150 0.600  3.00
     15. 0.150 0.600  3.00
     20. 0.150 0.600  3.00
     30. 0.190 0.600  3.00
     40. 0.190 0.600  3.00
     50. 0.170 0.600  3.00
     60. 0.170 0.600  3.00
     90. 0.070 0.600  3.00
*PLANTING DETAILS   
   2004169     -99   5.0   5.0     S     R   75.    0.   5.0  -99.  -99. -99.0 -99.0   0.0
*IRRIGATION         
   1.000    0.    0.    0. GS000 IR001   0.0
*FERTILIZERS        
*RESIDUES           
*CHEMICALS          
*TILLAGE            
*ENVIRONMENT        
*HARVEST            
   2004294 GS006     H     A  100.    0.
*SOIL               
 GHWA040001  unknown     SL     -99. Loamy Silt                                        
 Wa          Ghana        10.005  -2.496 unknown                                           
 BN     0.13   6.0  0.60   73.  1.00  1.00 IB001 SA002 IB001 -99  
    5.       0.085 0.155 0.383 1.000  2.59  1.54 0.480   7.5   8.3   4.3 0.060  6.30-99.00  1.00-99.00
   15.       0.085 0.155 0.383 1.000  2.59  1.54 0.440   7.5   8.3   4.3 0.060  6.30-99.00  1.00-99.00
   20.       0.085 0.155 0.383 1.000  2.59  1.54 0.440   7.5   8.3   4.3 0.060  6.30-99.00  1.00-99.00
   30.       0.122 0.190 0.362 0.549  2.59  1.57 0.350  14.5   8.2   6.4 0.060  6.30-99.00  1.00-99.00
   40.       0.122 0.190 0.362 0.549  2.59  1.57 0.350  14.5   8.2   6.4 0.060  6.30-99.00  1.00-99.00
   50.       0.124 0.170 0.204 0.368 0.120  1.52 0.350  40.9  10.7  49.2 0.040  5.90-99.00  0.90-99.00
   60.       0.124 0.170 0.204 0.368 0.120  1.52 0.350  40.9  10.7  49.2 0.040  5.90-99.00  0.90-99.00
   90.       0.059 0.079 0.088 0.000 .0600  1.38 0.340  52.9  16.9  80.7 0.040  6.00-99.00  0.80-99.00
                    
    5.  2.20 -99.0 -99.0 -99.0 -99.0 -99.0 -99.0 -99.0 -99.0 -99.0  0.10   0.3   0.5 -99.0 -99.0   1.5 0.470  -99.
   15.  2.30 -99.0 -99.0 -99.0 -99.0 -99.0 -99.0 -99.0 -99.0 -99.0  0.10   0.3   0.5 -99.0 -99.0   1.5 0.430  -99.
   20.  2.30 -99.0 -99.0 -99.0 -99.0 -99.0 -99.0 -99.0 -99.0 -99.0  0.10   0.3   0.5 -99.0 -99.0   1.5 0.430  -99.
   30.  2.30 -99.0 -99.0 -99.0 -99.0 -99.0 -99.0 -99.0 -99.0 -99.0  0.10   0.5   0.5 -99.0 -99.0   1.2 0.340  -99.
   40.  2.30 -99.0 -99.0 -99.0 -99.0 -99.0 -99.0 -99.0 -99.0 -99.0  0.10   0.5   0.5 -99.0 -99.0   1.2 0.340  -99.
   50.  2.30 -99.0 -99.0 -99.0 -99.0 -99.0 -99.0 -99.0 -99.0 -99.0  0.10   0.7   0.5 -99.0 -99.0   1.6 0.340  -99.
   60.  2.30 -99.0 -99.0 -99.0 -99.0 -99.0 -99.0 -99.0 -99.0 -99.0  0.10   0.7   0.5 -99.0 -99.0   1.6 0.340  -99.
   90.  2.30 -99.0 -99.0 -99.0 -99.0 -99.0 -99.0 -99.0 -99.0 -99.0  0.10   0.9   0.5 -99.0 -99.0   1.9 0.330  -99.
                    
    5.-99.00-99.00-99.00-99.00
   15.-99.00-99.00-99.00-99.00
   20.-99.00-99.00-99.00-99.00
   30.-99.00-99.00-99.00-99.00
   40.-99.00-99.00-99.00-99.00
   50.-99.00-99.00-99.00-99.00
   60.-99.00-99.00-99.00-99.00
   90.-99.00-99.00-99.00-99.00
*CULTIVAR           
GH0010 OBATANPA         IB0001  280.0 0.000 750.0 540.0  7.50 40.00
