*MODEL INPUT FILE            B     1     1     1   999     0
*FILES              
MODEL          CRGRO048
FILEX          UFGA8901.PNX                                                                                 
FILEA          UFGA8901.PNA                                                                                 
FILET          UFGA8901.PNT                                                                                 
SPECIES        PNGRO048.SPE C:\DSSAT48\GENOTYPE\                                                            
ECOTYPE        PNGRO048.ECO C:\DSSAT48\GENOTYPE\                                                            
CULTIVAR       PNGRO048.CUL C:\DSSAT48\GENOTYPE\                                                            
PESTS          PNGRO048.PST C:\DSSAT48\PEST\                                                                
SOILS          SOIL.SOL     C:\DSSAT48\SOIL\                                                                
WEATHERW       UFGA8901.WTH C:\DSSAT48\Weather\                                                             
OUTPUT         OVERVIEW
*SIMULATION CONTROL 
                   1     1     S 1989096  2150 IRRIGATED(2,4), RAINFED( 
                   Y     Y     Y     N     N     N     N     N     M
                   M     M     E     R     S     L     R     1     G     R     2     D     0
                   R     R     R     R     R
                   N     Y     Y     1     Y     Y     Y     Y     N     N     Y     N     N
!AUTOMATIC MANAGEM  
                   -99     -99   40.  100.   30.   40.   10.
                 30.   70.  100. IB001 IB001  10.0 0.750
                 30.   50.   25. IB001 IB001
                100.     1   20.
                     0     -99  100.    0.
*EXP.DETAILS        
  1UFGA8901 PN 1989 RAINFED AND IRRIGATED, FLORUNNER                       
*TREATMENTS         
  1 1 1 0 89 RAINFED FLORUNNER,GVL.
*CULTIVARS          
   PN IB0002 FLORUNNER       
*FIELDS             
   UFGA0001 UFGA8901   0.0    0. IB000    0. 100.0 00000 -99    180. IBPN910016-99.00 -99.0
    -99.0000000000  -99.0000000000   -99.000               1.0  100.   1.0 -99.0   -99   -99
*INITIAL CONDITIONS 
   PN    1989096   100     0  1.00  1.00 -99.0     0  0.00  0.00  100.    0.
      5. 0.089 0.600  1.50
     15. 0.089 0.600  1.50
     30. 0.068 0.600  1.50
     45. 0.075 0.600  1.50
     60. 0.075 0.600  1.50
     90. 0.073 0.600 0.600
    120. 0.069 0.600 0.500
    150. 0.072 0.600 0.500
    180. 0.085 0.600 0.500
*PLANTING DETAILS   
   1989096     -99  17.5  17.5     S     R   91.    0.   5.7  -99.  -99. -99.0 -99.0 -99.0
*IRRIGATION         
   0.750   30.   75.  -99. GS000 IR001   0.0
   1989118 IR001  15.0
*FERTILIZERS        
*RESIDUES           
   1989096 IB001  1000  0.80  0.00  0.00  100.   15.   -99
*CHEMICALS          
*TILLAGE            
*ENVIRONMENT        
*HARVEST            
   1989242 IBH03 IBHCS IBHCS  100.    0.
*SOIL               
 IBPN910016  Gainesville -99    180.   Lake Fine Sand                                  
 -99         -99          -0.009  -0.099 Hyperthermic, coated Typic Quartzipsamments       
 -99    0.18   5.0  0.50   66.  1.00  0.92 IB001 IB001 IB001 -99  
    5.       0.020 0.089 0.230 1.000  -99.  1.20 0.900 -99.0 -99.0 -99.0  -9.0  7.00-99.00-99.00-99.00
   15.       0.020 0.089 0.230 1.000  -99.  1.20 0.690 -99.0 -99.0 -99.0  -9.0  7.00-99.00-99.00-99.00
   30.       0.019 0.068 0.230 0.550  -99.  1.20 0.280 -99.0 -99.0 -99.0  -9.0  7.00-99.00-99.00-99.00
   45.       0.026 0.075 0.230 0.320  -99.  1.20 0.280 -99.0 -99.0 -99.0  -9.0  7.00-99.00-99.00-99.00
   60.       0.026 0.075 0.230 0.320  -99.  1.20 0.200 -99.0 -99.0 -99.0  -9.0  7.00-99.00-99.00-99.00
   90.       0.025 0.073 0.230 0.380  -99.  1.20 0.090 -99.0 -99.0 -99.0  -9.0  7.00-99.00-99.00-99.00
  120.       0.022 0.069 0.230 0.400  -99.  1.20 0.030 -99.0 -99.0 -99.0  -9.0  7.00-99.00-99.00-99.00
  150.       0.023 0.072 0.230 0.300  -99.  1.20 0.030 -99.0 -99.0 -99.0  -9.0  7.00-99.00-99.00-99.00
  180.       0.035 0.085 0.230 0.200  -99.  1.20 0.030 -99.0 -99.0 -99.0  -9.0  7.00-99.00-99.00-99.00
                    
    5.-99.00 -99.0 -99.0 -99.0 -99.0 -99.0 -99.0 -99.0 -99.0 -99.0-99.00 -99.0 -99.0 -99.0 -99.0 -99.0  -99.  -99.
   15.-99.00 -99.0 -99.0 -99.0 -99.0 -99.0 -99.0 -99.0 -99.0 -99.0-99.00 -99.0 -99.0 -99.0 -99.0 -99.0  -99.  -99.
   30.-99.00 -99.0 -99.0 -99.0 -99.0 -99.0 -99.0 -99.0 -99.0 -99.0-99.00 -99.0 -99.0 -99.0 -99.0 -99.0  -99.  -99.
   45.-99.00 -99.0 -99.0 -99.0 -99.0 -99.0 -99.0 -99.0 -99.0 -99.0-99.00 -99.0 -99.0 -99.0 -99.0 -99.0  -99.  -99.
   60.-99.00 -99.0 -99.0 -99.0 -99.0 -99.0 -99.0 -99.0 -99.0 -99.0-99.00 -99.0 -99.0 -99.0 -99.0 -99.0  -99.  -99.
   90.-99.00 -99.0 -99.0 -99.0 -99.0 -99.0 -99.0 -99.0 -99.0 -99.0-99.00 -99.0 -99.0 -99.0 -99.0 -99.0  -99.  -99.
  120.-99.00 -99.0 -99.0 -99.0 -99.0 -99.0 -99.0 -99.0 -99.0 -99.0-99.00 -99.0 -99.0 -99.0 -99.0 -99.0  -99.  -99.
  150.-99.00 -99.0 -99.0 -99.0 -99.0 -99.0 -99.0 -99.0 -99.0 -99.0-99.00 -99.0 -99.0 -99.0 -99.0 -99.0  -99.  -99.
  180.-99.00 -99.0 -99.0 -99.0 -99.0 -99.0 -99.0 -99.0 -99.0 -99.0-99.00 -99.0 -99.0 -99.0 -99.0 -99.0  -99.  -99.
                    
    5.-99.00-99.00-99.00-99.00
   15.-99.00-99.00-99.00-99.00
   30.-99.00-99.00-99.00-99.00
   45.-99.00-99.00-99.00-99.00
   60.-99.00-99.00-99.00-99.00
   90.-99.00-99.00-99.00-99.00
  120.-99.00-99.00-99.00-99.00
  150.-99.00-99.00-99.00-99.00
  180.-99.00-99.00-99.00-99.00
*CULTIVAR           
IB0002 FLORUNNER        PN0001 11.84 0.000 21.20  9.20 18.80 74.30 88.00 1.400 260.0  18.0  0.92 0.690 40.00  1.65 24.00  80.0 0.270 0.510
