*MODEL INPUT FILE            B     1     1     1   999     0
*FILES              
MODEL          CRGRO048
FILEX          UHIH1803.SFX                                                                                 
FILEA          UHIH1803.SFA                                                                                 
FILET          UHIH1803.SFT                                                                                 
SPECIES        SFGRO048.SPE C:\DSSAT48\GENOTYPE\                                                            
ECOTYPE        SFGRO048.ECO C:\DSSAT48\GENOTYPE\                                                            
CULTIVAR       SFGRO048.CUL C:\DSSAT48\GENOTYPE\                                                            
PESTS          SFGRO048.PST C:\DSSAT48\PEST\                                                                
SOILS          UH.SOL       C:\DSSAT48\SOIL\                                                                
WEATHERW       UHIH1801.WTH C:\DSSAT48\Weather\                                                             
OUTPUT         OVERVIEW
*SIMULATION CONTROL 
                   1     1     S 2018105  2150 Ceres SOC                
                   Y     N     N     N     N     N     N     Y     M
                   M     M     E     R     S     L     R     1     G     R     2     D     0
                   R     N     R     N     R
                   N     Y     Y     1     Y     Y     Y     Y     Y     N     Y     N     Y
!AUTOMATIC MANAGEM  
                   -99     -99   40.  100.   30.   40.   10.
                 30.   50.  100. GS000 IR001  10.0 1.000
                 30.   50.   25. FE001 GS000
                100.     1   20.
                     0     -99  100.    0.
*EXP.DETAILS        
  1UHIH1803 SF TWO CVS * PLANT DENSITY & SPACING; 2017; UNIV OF HOHENHEIM  
*TREATMENTS         
  1 1 1 0 S1, R1, B1               
*CULTIVARS          
   SF UH0001 Goldschopf      
*FIELDS             
   UHIH2018 UHIH1801   0.0  -99. DR000  -99. 100.0   -99 L      -99. UH00002020-99.00 -99.0
      8.9300003052   48.7299995422   479.000               1.0  100.   1.0 -99.0   -99   -99
*INITIAL CONDITIONS 
   99    2018105   -99   -99  1.00  1.00 -99.0   -99 -9.00 -9.00  -99.  -99.
      5. 0.406   0.0  6.30
     15. 0.406   0.0  6.30
     30. 0.406   0.0  6.30
     45. 0.406   0.0  2.50
     60. 0.406   0.0  2.50
     90. 0.406   0.0  2.30
    120. 0.406   0.0  2.30
    150. 0.406   0.0  2.30
    180. 0.406   0.0  2.30
*PLANTING DETAILS   
   2018109     -99  38.0  38.0     S     R   12.   90.   2.5  -99.  -99. -99.0 -99.0 -99.0
*IRRIGATION         
   1.000    0.    0.    0. GS000 IR001   0.0
*FERTILIZERS        
   2018135 FE001 AP002    5.   40.  -99.  -99.  -99.  -99.   -99
*RESIDUES           
*CHEMICALS          
*TILLAGE            
   2018108 TI005   8.0
   2018109 TI033   2.0
*ENVIRONMENT        
*HARVEST            
   2018233 GS000     H   -99  100.    0.
*SOIL               
 UH00002020  IBSNAT      L      -99.   UHIH2017                                        
 Generic     Generic      -0.099  -0.099 Generic                                           
 -99    0.11   6.0  0.30   73.  1.00  1.00 IB001 IB001 IB001 -99  
    5.       0.229 0.406 0.482 1.000  -99.  1.40 1.240  27.1  70.2 -99.0 0.160  0.00-99.00-99.00-99.00
   15.       0.229 0.406 0.482 1.000  -99.  1.40 1.240  27.1  70.2 -99.0 0.160  0.00-99.00-99.00-99.00
   30.       0.229 0.406 0.482 1.000  -99.  1.40 1.240  27.1  70.2 -99.0 0.160  0.00-99.00-99.00-99.00
   45.       0.229 0.406 0.465 0.550  -99.  1.50 0.650  27.2  70.4 -99.0 0.100  0.00-99.00-99.00-99.00
   60.       0.229 0.406 0.465 0.550  -99.  1.50 0.650  27.2  70.4 -99.0 0.100  0.00-99.00-99.00-99.00
   90.       0.238 0.406 0.468 0.400  -99.  1.60 0.550  33.1  63.6 -99.0 0.090  0.00-99.00-99.00-99.00
  120.       0.238 0.406 0.468 0.300  -99.  1.60 0.550  33.1  63.6 -99.0 0.090  0.00-99.00-99.00-99.00
  150.       0.238 0.406 0.468 0.200  -99.  1.60 0.550  33.1  63.6 -99.0 0.090  0.00-99.00-99.00-99.00
  180.       0.238 0.406 0.468 0.100  -99.  1.60 0.550  33.1  63.6 -99.0 0.090  0.00-99.00-99.00-99.00
                    
    5.-99.00 -99.0 -99.0 -99.0 -99.0 -99.0 -99.0 -99.0 -99.0 -99.0-99.00 -99.0 -99.0 -99.0 -99.0 -99.0  -99.  -99.
   15.-99.00 -99.0 -99.0 -99.0 -99.0 -99.0 -99.0 -99.0 -99.0 -99.0-99.00 -99.0 -99.0 -99.0 -99.0 -99.0  -99.  -99.
   30.-99.00 -99.0 -99.0 -99.0 -99.0 -99.0 -99.0 -99.0 -99.0 -99.0-99.00 -99.0 -99.0 -99.0 -99.0 -99.0  -99.  -99.
   45.-99.00 -99.0 -99.0 -99.0 -99.0 -99.0 -99.0 -99.0 -99.0 -99.0-99.00 -99.0 -99.0 -99.0 -99.0 -99.0  -99.  -99.
   60.-99.00 -99.0 -99.0 -99.0 -99.0 -99.0 -99.0 -99.0 -99.0 -99.0-99.00 -99.0 -99.0 -99.0 -99.0 -99.0  -99.  -99.
   90.-99.00 -99.0 -99.0 -99.0 -99.0 -99.0 -99.0 -99.0 -99.0 -99.0-99.00 -99.0 -99.0 -99.0 -99.0 -99.0  -99.  -99.
  120.-99.00 -99.0 -99.0 -99.0 -99.0 -99.0 -99.0 -99.0 -99.0 -99.0-99.00 -99.0 -99.0 -99.0 -99.0 -99.0  -99.  -99.
  150.-99.00 -99.0 -99.0 -99.0 -99.0 -99.0 -99.0 -99.0 -99.0 -99.0-99.00 -99.0 -99.0 -99.0 -99.0 -99.0  -99.  -99.
  180.-99.00 -99.0 -99.0 -99.0 -99.0 -99.0 -99.0 -99.0 -99.0 -99.0-99.00 -99.0 -99.0 -99.0 -99.0 -99.0  -99.  -99.
                    
    5.-99.00-99.00-99.00-99.00
   15.-99.00-99.00-99.00-99.00
   30.-99.00-99.00-99.00-99.00
   45.-99.00-99.00-99.00-99.00
   60.-99.00-99.00-99.00-99.00
   90.-99.00-99.00-99.00-99.00
  120.-99.00-99.00-99.00-99.00
  150.-99.00-99.00-99.00-99.00
  180.-99.00-99.00-99.00-99.00
*CULTIVAR           
UH0001 Goldschopf       BW0001 23.00 0.001 10.30  4.50 13.00 28.50 18.00 1.550 250.0 115.0  0.67 0.064 30.00 22.25 19.00  55.0 0.140 0.330
