*MODEL INPUT FILE            B     1     1     1   999     0
*FILES              
MODEL          CRGRO048
FILEX          LQPI1602.SBX                                                                                 
FILEA          LQPI1602.SBA                                                                                 
FILET          LQPI1602.SBT                                                                                 
SPECIES        SBGRO048.SPE C:\DSSAT48\GENOTYPE\                                                            
ECOTYPE        SBGRO048.ECO C:\DSSAT48\GENOTYPE\                                                            
CULTIVAR       SBGRO048.CUL C:\DSSAT48\GENOTYPE\                                                            
PESTS          SBGRO048.PST C:\DSSAT48\PEST\                                                                
SOILS          UP.SOL       C:\DSSAT48\SOIL\                                                                
WEATHERW       PIR21601.WTH C:\DSSAT48\Weather\                                                             
OUTPUT         OVERVIEW
*SIMULATION CONTROL 
                   1     1     S 2016288  2150 Exp1_PT_SR               
                   Y     N     Y     N     N     N     N     Y     D
                   M     M     E     R     S     L     R     1     P     S     2     D     0
                   R     R     R     N     M
                   N     Y     Y     1     Y     Y     Y     Y     Y     Y     Y     Y     Y
!AUTOMATIC MANAGEM  
                   -99     -99   70.  100.   30.   40.   10.
                 30.   50.  100. IB001 IB001  10.0 0.800
                 30.   50.   25. IB001 IB001
                100.     1   20.
                     0     -99  100.    0.
*EXP.DETAILS        
  1LQPI1602 SB EVAPOTRANSPIRATION AND CROP WATER PRODUCTIVITY              
*TREATMENTS         
  1 1 0 0 2016 PT_SR               
*CULTIVARS          
   SB 990248 BRS 399         
*FIELDS             
   FSFS0002 PIR21601   0.0  -99. DR000  -99. 100.0     0 SL     120. UPNITOSSO3-99.00 -99.0
     47.6300010681   22.7199993134   524.000               1.0  100.   1.0   0.0   -99   -99
*INITIAL CONDITIONS 
   FA    2016288   -99   -99  1.00  1.00 -99.0     0 -9.00 -9.00  -99.  -99.
      5. 0.273 0.100  1.30
     15. 0.273 0.100  1.30
     20. 0.273 0.100  1.30
     30. 0.267 0.100  1.30
     40. 0.314 0.100  1.30
     50. 0.314 0.100  1.30
     60. 0.342 0.100  1.30
     87. 0.342 0.100  1.30
    113. 0.342 0.100  1.30
    140. 0.342 0.100  1.30
    150. 0.325 0.100  1.30
*PLANTING DETAILS   
   2016319     -99  35.5  35.5     S     R   45.    0.   4.0  -99.  -99. -99.0 -99.0 -99.0
*IRRIGATION         
   0.800   30.   50.  100. GS000 IR001  10.0
   2016325 IR004  16.0
   2016329 IR004  16.0
   2017001 IR004  16.0
   2017005 IR004  16.0
   2017036 IR004  16.0
   2017039 IR004  24.0
   2017042 IR004  24.0
   2017044 IR004  16.0
   2017046 IR004  16.0
   2017048 IR004  22.0
   2017051 IR004  16.0
   2017053 IR004  22.0
*FERTILIZERS        
*RESIDUES           
*CHEMICALS          
*TILLAGE            
   2016290 TI010  45.0
   2016292 TI019   4.0
   2016292 TI033   8.0
   2016292 TI014  15.0
*ENVIRONMENT        
*HARVEST            
*SOIL               
 UPNITOSSO3  ESALQ       SL     120.   NITOSSOLO VERMELHO! SOLO PIRACICABA ORIGINAL    
 Piracicaba  Brazil      -22.700 -48.642 NITOSSOLO                                         
 R      0.14   6.0  0.70   50.  1.00  1.00 IB001 IB001 IB001 -99  
    5.       0.235 0.363 0.508 1.000 .0600  1.31 1.180  46.2  21.5   0.0  -9.0  5.60-99.00  7.30-99.00
   15.       0.235 0.363 0.508 1.000 .0600  1.31 1.180  46.2  21.5   0.0  -9.0  5.60-99.00  7.30-99.00
   20.       0.235 0.363 0.508 1.000 .0600  1.31 1.180  46.2  21.5   0.0  -9.0  5.60-99.00  7.30-99.00
   30.       0.235 0.342 0.508 1.000 .0600  1.31 1.180  46.2  21.5   0.0  -9.0  5.60-99.00  7.30-99.00
   40.       0.264 0.432 0.534 0.800 .0600  1.32 0.740  57.0  17.8   0.0  -9.0  5.30-99.00  7.10-99.00
   50.       0.264 0.432 0.534 0.800 .0600  1.32 0.740  57.0  17.8   0.0  -9.0  5.30-99.00  7.10-99.00
   60.       0.304 0.432 0.520 0.600 .0600  1.35 0.480  56.7  18.8   0.0  -9.0  5.30-99.00  6.90-99.00
   87.       0.304 0.432 0.520 0.300 .0600  1.35 0.480  56.7  18.8   0.0  -9.0  5.30-99.00  6.90-99.00
  113.       0.304 0.432 0.520 0.300 .0600  1.35 0.480  56.7  18.8   0.0  -9.0  5.30-99.00  6.90-99.00
  140.       0.304 0.432 0.520 0.300 .0600  1.35 0.480  56.7  18.8   0.0  -9.0  5.30-99.00  6.90-99.00
  150.       0.283 0.422 0.526 0.080 .0600  1.37 0.360  53.4  20.3   0.0  -9.0  5.40-99.00  6.90-99.00
                    
    5.-99.00 -99.0 -99.0 -99.0 -99.0 -99.0 -99.0 -99.0 -99.0 -99.0-99.00 -99.0 -99.0 -99.0 -99.0 -99.0  -99.  -99.
   15.-99.00 -99.0 -99.0 -99.0 -99.0 -99.0 -99.0 -99.0 -99.0 -99.0-99.00 -99.0 -99.0 -99.0 -99.0 -99.0  -99.  -99.
   20.-99.00 -99.0 -99.0 -99.0 -99.0 -99.0 -99.0 -99.0 -99.0 -99.0-99.00 -99.0 -99.0 -99.0 -99.0 -99.0  -99.  -99.
   30.-99.00 -99.0 -99.0 -99.0 -99.0 -99.0 -99.0 -99.0 -99.0 -99.0-99.00 -99.0 -99.0 -99.0 -99.0 -99.0  -99.  -99.
   40.-99.00 -99.0 -99.0 -99.0 -99.0 -99.0 -99.0 -99.0 -99.0 -99.0-99.00 -99.0 -99.0 -99.0 -99.0 -99.0  -99.  -99.
   50.-99.00 -99.0 -99.0 -99.0 -99.0 -99.0 -99.0 -99.0 -99.0 -99.0-99.00 -99.0 -99.0 -99.0 -99.0 -99.0  -99.  -99.
   60.-99.00 -99.0 -99.0 -99.0 -99.0 -99.0 -99.0 -99.0 -99.0 -99.0-99.00 -99.0 -99.0 -99.0 -99.0 -99.0  -99.  -99.
   87.-99.00 -99.0 -99.0 -99.0 -99.0 -99.0 -99.0 -99.0 -99.0 -99.0-99.00 -99.0 -99.0 -99.0 -99.0 -99.0  -99.  -99.
  113.-99.00 -99.0 -99.0 -99.0 -99.0 -99.0 -99.0 -99.0 -99.0 -99.0-99.00 -99.0 -99.0 -99.0 -99.0 -99.0  -99.  -99.
  140.-99.00 -99.0 -99.0 -99.0 -99.0 -99.0 -99.0 -99.0 -99.0 -99.0-99.00 -99.0 -99.0 -99.0 -99.0 -99.0  -99.  -99.
  150.-99.00 -99.0 -99.0 -99.0 -99.0 -99.0 -99.0 -99.0 -99.0 -99.0-99.00 -99.0 -99.0 -99.0 -99.0 -99.0  -99.  -99.
                    
    5.-99.00-99.00-99.00-99.00
   15.-99.00-99.00-99.00-99.00
   20.-99.00-99.00-99.00-99.00
   30.-99.00-99.00-99.00-99.00
   40.-99.00-99.00-99.00-99.00
   50.-99.00-99.00-99.00-99.00
   60.-99.00-99.00-99.00-99.00
   87.-99.00-99.00-99.00-99.00
  113.-99.00-99.00-99.00-99.00
  140.-99.00-99.00-99.00-99.00
  150.-99.00-99.00-99.00-99.00
*CULTIVAR           
990248 BRS 399          SB0601 12.58 0.311 20.40  8.20 13.70 28.70 18.00 1.030 335.0 180.0  1.00 0.190 23.00  2.40 10.00  78.0 0.400 0.200
