*MODEL INPUT FILE            B     1     1     1   999     0
*FILES              
MODEL          PRFRM048
FILEX          SPPI1101.BRX                                                                                 
FILEA          SPPI1101.BRA                                                                                 
FILET          SPPI1101.BRT                                                                                 
SPECIES        BRFRM048.SPE C:\DSSAT48\GENOTYPE\                                                            
ECOTYPE        BRFRM048.ECO C:\DSSAT48\GENOTYPE\                                                            
CULTIVAR       BRFRM048.CUL C:\DSSAT48\GENOTYPE\                                                            
PESTS          BRFRM048.PST C:\DSSAT48\PEST\                                                                
SOILS          EB.SOL       C:\DSSAT48\SOIL\                                                                
WEATHERW       SPPI1101.WTH C:\DSSAT48\Weather\                                                             
OUTPUT         OVERVIEW
*SIMULATION CONTROL 
                   1     1     P 2011001  2150 DEFAULT SIMULATION CNTRL 
                   Y     Y     N     N     N     N     N     N     M
                   M     M     E     F     S     L     R     1     P     R     2     D     0
                   R     R     R     R     R
                   N     Y     Y     1     Y     Y     Y     Y     Y     Y     N     Y     N
!AUTOMATIC MANAGEM  
                   -99     -99    0.    0.    0.    0.    0.
                  0.    0.    0.   -99   -99   0.0 0.000
                  0.    0.    0.   -99   -99
                  0.     0    0.
                     0     -99    0.    0.
*EXP.DETAILS        
  1SPPI1101 BR MARANDU PALISADEGRASS                                       
*TREATMENTS         
  1 1 1 0 MARANDU 28D Irrig        
*CULTIVARS          
   BR SP0001 Marandu         
*FIELDS             
   SPPI1101 SPPI1101   0.0  -99.   -99  -99. 100.0   -99 SC     -99. EBPI080100-99.00 -99.0
    -99.0000000000  -99.0000000000   -99.000               1.0  100.   1.0 -99.0   -99   -99
*INITIAL CONDITIONS 
   BH    2011001  2000     0  1.00  1.00 -99.0  8000  1.00  0.00  100.   25.
      5. 0.519 0.100 0.800
     15. 0.519 0.100 0.800
     25. 0.443 0.100 0.800
     40. 0.366 0.100 0.800
     55. 0.366 0.100 0.800
     65. 0.366 0.100 0.800
     75. 0.366 0.100 0.800
     85. 0.366 0.100 0.800
    142. 0.366 0.100 0.800
    200. 0.366 0.100 0.800
    283. 0.366 0.010 0.010
    367. 0.366 0.010 0.010
    450. 0.366 0.010 0.010
*PLANTING DETAILS   
   2011001     -99 999.0 999.0     T     R    2.    0.   2.0 2000.  150.  32.0   1.0   0.0
*IRRIGATION         
   1.000   30.   50.  100. GS000 IR001  10.0
   2011125 IR004  10.5
   2011139 IR004  10.5
   2011143 IR004   7.0
   2011146 IR004  12.3
   2011153 IR004   7.9
   2011161 IR004  10.5
   2011166 IR004  10.5
   2011172 IR004   7.0
   2011178 IR004   6.1
   2011181 IR004   7.0
   2011185 IR004   7.0
   2011189 IR004  10.5
   2011197 IR004  10.5
   2011201 IR004  10.5
   2011206 IR004   8.8
   2011207 IR004   4.4
   2011210 IR004  10.5
   2011215 IR004   5.3
   2011218 IR004   3.5
   2011221 IR004   5.3
   2011223 IR004   6.1
   2011225 IR004   2.6
   2011228 IR004   5.3
   2011231 IR004   8.8
   2011232 IR004   5.3
   2011238 IR004   8.8
   2011241 IR004  12.3
   2011248 IR004  10.5
   2011253 IR004  10.5
   2011255 IR004  13.1
   2011257 IR004 126.0
   2011265 IR004   8.8
   2011269 IR004   7.0
   2011272 IR004  11.6
   2011276 IR004   7.0
   2011279 IR004  10.5
   2011286 IR004  10.5
   2011293 IR004  10.5
   2011298 IR004  10.5
   2011302 IR004   7.9
   2011307 IR004   7.0
   2011310 IR004  10.5
   2011312 IR004   5.3
   2011317 IR004   7.0
   2011338 IR004   9.6
   2011346 IR004  12.3
   2011350 IR004   6.1
   2011351 IR004  10.5
   2011354 IR004  13.1
   2011357 IR004  15.8
   2011360 IR004  13.1
   2012030 IR004  10.5
   2012035 IR004  15.8
   2012038 IR004   8.8
   2012041 IR004  19.3
   2012047 IR004  10.5
   2012061 IR004   9.6
   2012066 IR004   8.8
   2012069 IR004  19.3
   2012075 IR004  14.0
   2012078 IR004  34.1
   2012082 IR004  21.0
   2012094 IR004  26.3
   2012103 IR004  10.5
   2012107 IR004  10.5
   2012116 IR004  10.5
   2012125 IR004  12.3
   2012139 IR004  14.0
   2012142 IR004   8.8
   2012149 IR004  17.5
   2012152 IR004  19.3
   2012165 IR004  14.9
   2012178 IR004  16.6
   2012186 IR004  17.5
   2012205 IR004  15.8
   2012213 IR004  21.0
   2012218 IR004  12.3
   2012222 IR004  15.8
   2012229 IR004  15.8
   2012230 IR004  10.5
   2012240 IR004  10.5
   2012242 IR004  12.3
   2012248 IR004  21.0
   2012250 IR004  10.5
   2012252 IR004  15.8
   2012255 IR004  10.5
   2012257 IR004  15.8
   2012260 IR004  10.5
   2012273 IR004   8.8
   2012274 IR004  12.3
   2012278 IR004  15.8
   2012281 IR004  17.5
   2012283 IR004  13.1
   2012289 IR004  10.5
   2012290 IR004   1.8
   2012300 IR004  10.5
   2012303 IR004   5.3
   2012304 IR004  15.8
   2012321 IR004  10.5
   2012322 IR004   4.4
   2012327 IR004  10.5
   2012333 IR004   8.8
   2012334 IR004  10.5
   2012340 IR004   7.0
   2012343 IR004  15.8
   2012346 IR004  10.5
   2012358 IR004  12.3
   2013005 IR004   7.9
   2013060 IR004   7.9
   2013062 IR004  10.5
   2013064 IR004  10.5
*FERTILIZERS        
   2011013 FE001 AP001    1.   31.  -99.  -99.  -99.  -99.   -99
   2011041 FE001 AP001    1.   31.  -99.  -99.  -99.  -99.   -99
   2011069 FE001 AP001    1.   31.  -99.  -99.  -99.  -99.   -99
   2011097 FE001 AP001    1.   31.  -99.  -99.  -99.  -99.   -99
   2011125 FE001 AP001    1.   31.  -99.  -99.  -99.  -99.   -99
   2011153 FE001 AP001    1.   31.  -99.  -99.  -99.  -99.   -99
   2011181 FE001 AP001    1.   31.  -99.  -99.  -99.  -99.   -99
   2011209 FE001 AP001    1.   31.  -99.  -99.  -99.  -99.   -99
   2011237 FE001 AP001    1.   31.  -99.  -99.  -99.  -99.   -99
   2011265 FE001 AP001    1.   31.  -99.  -99.  -99.  -99.   -99
   2011293 FE001 AP001    1.   31.  -99.  -99.  -99.  -99.   -99
   2011321 FE001 AP001    1.   31.  -99.  -99.  -99.  -99.   -99
   2011349 FE001 AP001    1.   31.  -99.  -99.  -99.  -99.   -99
   2012012 FE001 AP001    1.   31.  -99.  -99.  -99.  -99.   -99
   2012040 FE001 AP001    1.   31.  -99.  -99.  -99.  -99.   -99
   2012068 FE001 AP001    1.   31.  -99.  -99.  -99.  -99.   -99
   2012096 FE001 AP001    1.   31.  -99.  -99.  -99.  -99.   -99
   2012124 FE001 AP001    1.   31.  -99.  -99.  -99.  -99.   -99
   2012152 FE001 AP001    1.   31.  -99.  -99.  -99.  -99.   -99
   2012180 FE001 AP001    1.   31.  -99.  -99.  -99.  -99.   -99
   2012208 FE001 AP001    1.   31.  -99.  -99.  -99.  -99.   -99
   2012236 FE001 AP001    1.   31.  -99.  -99.  -99.  -99.   -99
   2012264 FE001 AP001    1.   31.  -99.  -99.  -99.  -99.   -99
   2012292 FE001 AP001    1.   31.  -99.  -99.  -99.  -99.   -99
   2012320 FE001 AP001    1.   31.  -99.  -99.  -99.  -99.   -99
   2012348 FE001 AP001    1.   31.  -99.  -99.  -99.  -99.   -99
   2013010 FE001 AP001    1.   31.  -99.  -99.  -99.  -99.   -99
   2013038 FE001 AP001    1.   31.  -99.  -99.  -99.  -99.   -99
   2013066 FE001 AP001    1.   31.  -99.  -99.  -99.  -99.   -99
   2013094 FE001 AP001    1.   31.  -99.  -99.  -99.  -99.   -99
*RESIDUES           
*CHEMICALS          
*TILLAGE            
*ENVIRONMENT        
*HARVEST            
   2013106 GS000     C     A  100.    0.
*SOIL               
 EBPI080100  LVada       SC     -99. Latossolo Vermelho Amarelo                        
 Piracicaba  Brasil      -22.800 -47.330 Ultima Correcao - SGRF, SSKS SLLL SDUL            
 R      0.14   2.0  0.20   70.  1.00  0.95 IB001 IB001 IB001 -99  
    5.       0.242 0.366 0.480 1.000 0.380  1.37 1.740  40.0  22.0   0.0  -9.0  6.00-99.00  5.30-99.00
   15.       0.242 0.366 0.480 1.000 0.380  1.37 1.740  40.0  22.0   0.0  -9.0  6.00-99.00  3.70-99.00
   25.       0.242 0.366 0.480 0.870 0.380  1.37 1.100  40.0  22.0   0.0  -9.0  6.00-99.00  3.70-99.00
   40.       0.242 0.366 0.480 0.790 0.400  1.35 0.700  44.0  22.0   0.0  -9.0  6.10-99.00  2.70-99.00
   55.       0.240 0.340 0.480 0.700 0.400  1.15 0.400  61.0   4.0   0.0  -9.0  6.50-99.00  2.80-99.00
   65.       0.240 0.340 0.490 0.620 0.400  1.15 0.400  61.0   4.0   0.0  -9.0  6.50-99.00  2.80-99.00
   75.       0.240 0.340 0.490 0.620 0.400  1.15 0.400  61.0   4.0   0.0  -9.0  6.50-99.00  2.80-99.00
   85.       0.240 0.340 0.490 0.550 0.400  1.13 0.300  61.0   4.0   0.0  -9.0  6.50-99.00  2.30-99.00
  142.       0.250 0.350 0.490 0.310 0.360  1.13 0.100  59.0  10.0   0.0  -9.0  6.60-99.00  2.10-99.00
  200.       0.250 0.350 0.490 0.310 0.360  1.13 0.100  59.0  10.0   0.0  -9.0  6.60-99.00  2.10-99.00
  283.       0.250 0.350 0.490 0.020 0.360  1.13 0.100  59.0  10.0   0.0  -9.0  6.60-99.00  2.10-99.00
  367.       0.250 0.350 0.490 0.020 0.360  1.13 0.100  59.0  10.0   0.0  -9.0  6.60-99.00  2.10-99.00
  450.       0.250 0.350 0.490 0.020 0.360  1.13 0.100  59.0  10.0   0.0  -9.0  6.60-99.00  2.10-99.00
                    
    5.-99.00 -99.0 -99.0 -99.0 -99.0 -99.0 -99.0 -99.0 -99.0 -99.0-99.00 -99.0 -99.0 -99.0 -99.0 -99.0 0.992  -99.
   15.-99.00 -99.0 -99.0 -99.0 -99.0 -99.0 -99.0 -99.0 -99.0 -99.0-99.00 -99.0 -99.0 -99.0 -99.0 -99.0 0.992  -99.
   25.-99.00 -99.0 -99.0 -99.0 -99.0 -99.0 -99.0 -99.0 -99.0 -99.0-99.00 -99.0 -99.0 -99.0 -99.0 -99.0 0.627  -99.
   40.-99.00 -99.0 -99.0 -99.0 -99.0 -99.0 -99.0 -99.0 -99.0 -99.0-99.00 -99.0 -99.0 -99.0 -99.0 -99.0 0.399  -99.
   55.-99.00 -99.0 -99.0 -99.0 -99.0 -99.0 -99.0 -99.0 -99.0 -99.0-99.00 -99.0 -99.0 -99.0 -99.0 -99.0 0.228  -99.
   65.-99.00 -99.0 -99.0 -99.0 -99.0 -99.0 -99.0 -99.0 -99.0 -99.0-99.00 -99.0 -99.0 -99.0 -99.0 -99.0 0.228  -99.
   75.-99.00 -99.0 -99.0 -99.0 -99.0 -99.0 -99.0 -99.0 -99.0 -99.0-99.00 -99.0 -99.0 -99.0 -99.0 -99.0 0.228  -99.
   85.-99.00 -99.0 -99.0 -99.0 -99.0 -99.0 -99.0 -99.0 -99.0 -99.0-99.00 -99.0 -99.0 -99.0 -99.0 -99.0 0.171  -99.
  142.-99.00 -99.0 -99.0 -99.0 -99.0 -99.0 -99.0 -99.0 -99.0 -99.0-99.00 -99.0 -99.0 -99.0 -99.0 -99.0 0.057  -99.
  200.-99.00 -99.0 -99.0 -99.0 -99.0 -99.0 -99.0 -99.0 -99.0 -99.0-99.00 -99.0 -99.0 -99.0 -99.0 -99.0 0.057  -99.
  283.-99.00 -99.0 -99.0 -99.0 -99.0 -99.0 -99.0 -99.0 -99.0 -99.0-99.00 -99.0 -99.0 -99.0 -99.0 -99.0 0.057  -99.
  367.-99.00 -99.0 -99.0 -99.0 -99.0 -99.0 -99.0 -99.0 -99.0 -99.0-99.00 -99.0 -99.0 -99.0 -99.0 -99.0 0.057  -99.
  450.-99.00 -99.0 -99.0 -99.0 -99.0 -99.0 -99.0 -99.0 -99.0 -99.0-99.00 -99.0 -99.0 -99.0 -99.0 -99.0 0.057  -99.
                    
    5.-99.00-99.00-99.00-99.00
   15.-99.00-99.00-99.00-99.00
   25.-99.00-99.00-99.00-99.00
   40.-99.00-99.00-99.00-99.00
   55.-99.00-99.00-99.00-99.00
   65.-99.00-99.00-99.00-99.00
   75.-99.00-99.00-99.00-99.00
   85.-99.00-99.00-99.00-99.00
  142.-99.00-99.00-99.00-99.00
  200.-99.00-99.00-99.00-99.00
  283.-99.00-99.00-99.00-99.00
  367.-99.00-99.00-99.00-99.00
  450.-99.00-99.00-99.00-99.00
*CULTIVAR           
SP0001 Marandu          G00001 12.50 0.200 99.00 10.00 18.00 33.00 25.00 1.800 190.0   2.0  0.01 0.020 15.00  2.05 20.00  78.0 0.115 0.035
