*MODEL INPUT FILE            B     1     1     1   999     0
*FILES              
MODEL          CRGRO048
FILEX          UAFD0801.SUX                                                                                 
FILEA          UAFD0801.SUA                                                                                 
FILET          UAFD0801.SUT                                                                                 
SPECIES        SUGRO048.SPE C:\DSSAT48\GENOTYPE\                                                            
ECOTYPE        SUGRO048.ECO C:\DSSAT48\GENOTYPE\                                                            
CULTIVAR       SUGRO048.CUL C:\DSSAT48\GENOTYPE\                                                            
PESTS          SUGRO048.PST C:\DSSAT48\PEST\                                                                
SOILS          UA.SOL       C:\DSSAT48\SOIL\                                                                
WEATHERW       UAFD0801.WTH C:\DSSAT48\Weather\                                                             
OUTPUT         OVERVIEW
*SIMULATION CONTROL 
                   1     1     P 2008053  2150 DEFAULT SIMULATION CONTR 
                   Y     Y     N     N     N     N     N     Y     M
                   M     M     E     R     S     L     R     1     P     R     2     D     0
                   R     R     R     N     M
                   N     Y     Y     1     Y     Y     Y     Y     N     N     Y     N     N
!AUTOMATIC MANAGEM  
                   -99     -99    0.    0.    0.    0.    0.
                  0.    0.    0. GS000 IR001  10.0 1.000
                  0.    0.    0. FE001 GS000
                  0.     0    0.
                     0     -99   10.    0.
*EXP.DETAILS        
  1UAFD0801 SU CULTIVAR BY NITROGEN RESPONSE - FAISALABAD                  
*TREATMENTS         
  1 1 0 0 Hysun-33-0 Kg N ha-1     
*CULTIVARS          
   SU IB0018 Hysun-33        
*FIELDS             
   FSD80001 UAFD0801   0.0    0. DR000    0. 100.0 00000 SL       0. UAFD040001-99.00 -99.0
      0.0000000000    0.0000000000     0.000               1.0  100.   1.0   0.0   -99   -99
*INITIAL CONDITIONS 
   WH    2008001  1000     0  1.00  1.00 -99.0  2000  0.61  0.00  100.   30.
      5. 0.253 0.400  4.00
     15. 0.253 0.400  4.00
     30. 0.254 0.400  4.00
     45. 0.254 0.400  4.00
     60. 0.254 0.400  4.00
     76. 0.254 0.400  4.00
     92. 0.254 0.400  4.00
    109. 0.255 0.400  4.00
    127. 0.255 0.400  4.00
    152. 0.272 0.400  4.00
*PLANTING DETAILS   
   2008053     -99   7.0   6.0     S     R   70.    0.   4.0  -99.  -99. -99.0 -99.0   0.0
*IRRIGATION         
   1.000   30.   50.  100. GS000 IR001  10.0
   2008053 IR001  70.0
   2008074 IR001  70.0
   2008088 IR001  70.0
   2008119 IR001  90.0
   2008138 IR001  90.0
   2008158 IR001  95.0
*FERTILIZERS        
   2008053 FE005   001    0.    0.    0.    0.  -99.  -99.   -99
*RESIDUES           
*CHEMICALS          
*TILLAGE            
*ENVIRONMENT        
*HARVEST            
*SOIL               
 UAFD040001  SSOP        SL       0. SANDY CLAY LOAM (Experimental Site 1) !kjb added 0
 FAISALABAD  PAKISTAN     31.400  73.110 Fine loamy, silik.,therm.                         
 BN     0.13   9.0  0.23   61.  1.00  0.90 IB001 IB001 IB001 -99  
    5.       0.146 0.304 0.422 1.000 0.680  1.50 0.890  26.0  56.0   0.0 0.070  7.80-99.00  9.60-99.00
   15.       0.146 0.304 0.422 1.000 0.680  1.50 0.890  26.0  56.0   0.0 0.070  7.80-99.00  9.60-99.00
   30.       0.152 0.303 0.414 0.900 0.150  1.51 0.690  28.0  53.0   0.0 0.030  7.90-99.00 10.40-99.00
   45.       0.152 0.303 0.414 0.543 0.150  1.51 0.690  28.0  53.0   0.0 0.030  7.90-99.00 10.40-99.00
   60.       0.152 0.303 0.414 0.443 0.150  1.51 0.690  28.0  53.0   0.0 0.030  7.90-99.00 10.40-99.00
   76.       0.152 0.303 0.414 0.343 0.150  1.51 0.690  28.0  53.0   0.0 0.030  7.90-99.00 10.40-99.00
   92.       0.152 0.303 0.414 0.343 0.150  1.51 0.690  28.0  53.0   0.0 0.030  7.90-99.00 10.40-99.00
  109.       0.158 0.303 0.409 0.212 0.230  1.51 0.460  30.0  50.0   0.0 0.040  8.80-99.00 14.40-99.00
  127.       0.158 0.303 0.409 0.212 0.230  1.51 0.460  30.0  50.0   0.0 0.040  8.80-99.00 14.40-99.00
  152.       0.165 0.323 0.423 0.161 0.150  1.53 0.420  32.0  54.0   0.0 0.040  8.20-99.00 15.20-99.00
                    
    5.-99.00 -99.0 -99.0 -99.0 -99.0 -99.0 -99.0 -99.0 -99.0 -99.0-99.00 -99.0 -99.0 -99.0 -99.0 -99.0 0.620  -99.
   15.-99.00 -99.0 -99.0 -99.0 -99.0 -99.0 -99.0 -99.0 -99.0 -99.0-99.00 -99.0 -99.0 -99.0 -99.0 -99.0 0.620  -99.
   30.-99.00 -99.0 -99.0 -99.0 -99.0 -99.0 -99.0 -99.0 -99.0 -99.0-99.00 -99.0 -99.0 -99.0 -99.0 -99.0 0.480  -99.
   45.-99.00 -99.0 -99.0 -99.0 -99.0 -99.0 -99.0 -99.0 -99.0 -99.0-99.00 -99.0 -99.0 -99.0 -99.0 -99.0 0.480  -99.
   60.-99.00 -99.0 -99.0 -99.0 -99.0 -99.0 -99.0 -99.0 -99.0 -99.0-99.00 -99.0 -99.0 -99.0 -99.0 -99.0 0.480  -99.
   76.-99.00 -99.0 -99.0 -99.0 -99.0 -99.0 -99.0 -99.0 -99.0 -99.0-99.00 -99.0 -99.0 -99.0 -99.0 -99.0 0.480  -99.
   92.-99.00 -99.0 -99.0 -99.0 -99.0 -99.0 -99.0 -99.0 -99.0 -99.0-99.00 -99.0 -99.0 -99.0 -99.0 -99.0 0.480  -99.
  109.-99.00 -99.0 -99.0 -99.0 -99.0 -99.0 -99.0 -99.0 -99.0 -99.0-99.00 -99.0 -99.0 -99.0 -99.0 -99.0 0.320  -99.
  127.-99.00 -99.0 -99.0 -99.0 -99.0 -99.0 -99.0 -99.0 -99.0 -99.0-99.00 -99.0 -99.0 -99.0 -99.0 -99.0 0.320  -99.
  152.-99.00 -99.0 -99.0 -99.0 -99.0 -99.0 -99.0 -99.0 -99.0 -99.0-99.00 -99.0 -99.0 -99.0 -99.0 -99.0 0.290  -99.
                    
    5.-99.00-99.00-99.00-99.00
   15.-99.00-99.00-99.00-99.00
   30.-99.00-99.00-99.00-99.00
   45.-99.00-99.00-99.00-99.00
   60.-99.00-99.00-99.00-99.00
   76.-99.00-99.00-99.00-99.00
   92.-99.00-99.00-99.00-99.00
  109.-99.00-99.00-99.00-99.00
  127.-99.00-99.00-99.00-99.00
  152.-99.00-99.00-99.00-99.00
*CULTIVAR           
IB0018 Hysun-33         SU0702 15.00-0.190 20.40  6.00 11.30 26.50 14.00 1.700 260.0 200.0  0.70 0.070 24.00  2.00  4.50  68.0 0.140 0.450
