*MODEL INPUT FILE            B     1     1     1   999     0
*FILES              
MODEL          MZCER048
FILEX          IUAF9902.MZX                                                                                 
FILEA          IUAF9902.MZA                                                                                 
FILET          IUAF9902.MZT                                                                                 
SPECIES        MZCER048.SPE C:\DSSAT48\GENOTYPE\                                                            
ECOTYPE        MZCER048.ECO C:\DSSAT48\GENOTYPE\                                                            
CULTIVAR       MZCER048.CUL C:\DSSAT48\GENOTYPE\                                                            
PESTS          MZCER048.PST C:\DSSAT48\PEST\                                                                
SOILS          SOIL.SOL     C:\DSSAT48\SOIL\                                                                
WEATHERW       IUAF9901.WTH C:\DSSAT48\Weather\                                                             
OUTPUT         OVERVIEW
*SIMULATION CONTROL 
                   1     1     S 1999115  2150 1999, AMES POPxNxHYB     
                   Y     Y     N     N     N     Y     N     Y     M
                   M     M     E     R     S     R     R     1     G     R     2     D     0
                   R     N     R     R     R
                   N     Y     Y     1     Y     N     Y     Y     N     Y     Y     N     N
!AUTOMATIC MANAGEM  
                   -99     -99   25.  100.   30.   40.   10.
                 30.   50.  100. GS000 IR001  10.0 1.000
                 30.   50.   25. FE001 GS000
                100.     1   20.
                     0     -99  100.    0.
*EXP.DETAILS        
  1IUAF9902 MZ IUAF9902 EXAMPLES OF PEST DAMAGE                            
*TREATMENTS         
  1 1 0 0 No Damage                
*CULTIVARS          
   MZ IB1052 DK 611          
*FIELDS             
   IUAF0001 IUAF9901   0.0    0. DR000    0. 100.0 00000 -99    110. ISUV950008-99.00 -99.0
    -99.0000000000  -99.0000000000   -99.000               1.0  100.   1.0 -99.0   -99   -99
*INITIAL CONDITIONS 
   MZ    1999124   200     0  1.00  1.00 -99.0     0  0.00  0.00  100.    0.
      5. 0.189   0.0  1.00
     15. 0.189   0.0  1.00
     18. 0.189   0.0 0.500
     31. 0.222   0.0 0.077
     46. 0.228   0.0   0.0
     56. 0.277   0.0   0.0
     66. 0.310   0.0   0.0
     91. 0.318   0.0   0.0
    111. 0.298   0.0   0.0
    132. 0.280   0.0   0.0
    152. 0.280   0.0   0.0
*PLANTING DETAILS   
   1999147     -99   8.0   7.4     S     R   76.    0.   4.0  -99.  -99. -99.0 -99.0 -99.0
*IRRIGATION         
   1.000    0.    0.    0. GS000 IR001   0.0
*FERTILIZERS        
   1999130 FE004 AP009   20.  224.    0.    0.  -99.  -99.   -99
*RESIDUES           
*CHEMICALS          
*TILLAGE            
*ENVIRONMENT        
*HARVEST            
   1999304 GS000   -99   -99  100.    0.
*SOIL               
 ISUV950008  AEES, AMES  -99    110.   CLARION LOAM                                    
 -99         -99           0.004  -0.099 TYPIC HAPLUDOLL, FINE-LOAMY, MIXED, MESIC ( 31)   
 -99    0.09   9.8  0.40   84.  0.50  1.00 IB001 IB001 IB001 -99  
    5.       0.110 0.300 0.361 1.000  3.30  1.45 2.030  21.0 -99.0 -99.0  -9.0  6.40-99.00-99.00-99.00
   15.       0.110 0.300 0.361 1.000  3.30  1.45 2.030  21.0 -99.0 -99.0  -9.0  6.40-99.00-99.00-99.00
   18.       0.110 0.300 0.361 1.000  3.30  1.45 2.030  21.0 -99.0 -99.0  -9.0  6.40-99.00-99.00-99.00
   31.       0.110 0.300 0.361 1.000  3.30  1.45 2.030  21.0 -99.0 -99.0  -9.0  6.40-99.00-99.00-99.00
   46.       0.110 0.300 0.361 1.000  3.30  1.45 2.030  27.0 -99.0 -99.0  -9.0  6.40-99.00-99.00-99.00
   56.       0.129 0.310 0.371 1.000  3.30  1.60 0.440  27.0 -99.0 -99.0  -9.0  6.70-99.00-99.00-99.00
   66.       0.129 0.310 0.371 1.000  3.30  1.60 0.440  27.0 -99.0 -99.0  -9.0  6.70-99.00-99.00-99.00
   91.       0.129 0.310 0.371 0.500  3.30  1.60 0.440  27.0 -99.0 -99.0  -9.0  6.70-99.00-99.00-99.00
  111.       0.107 0.229 0.369 0.500  3.30  1.60 0.150  17.0 -99.0 -99.0  -9.0  7.90-99.00-99.00-99.00
  132.       0.107 0.229 0.369 0.500  3.30  1.60 0.150  17.0 -99.0 -99.0  -9.0  7.90-99.00-99.00-99.00
  152.       0.107 0.229 0.369 0.500  3.30  1.60 0.150  17.0 -99.0 -99.0  -9.0  7.90-99.00-99.00-99.00
                    
    5.-99.00 -99.0 -99.0 -99.0 -99.0 -99.0 -99.0 -99.0 -99.0 -99.0-99.00 -99.0 -99.0 -99.0 -99.0 -99.0  -99.  -99.
   15.-99.00 -99.0 -99.0 -99.0 -99.0 -99.0 -99.0 -99.0 -99.0 -99.0-99.00 -99.0 -99.0 -99.0 -99.0 -99.0  -99.  -99.
   18.-99.00 -99.0 -99.0 -99.0 -99.0 -99.0 -99.0 -99.0 -99.0 -99.0-99.00 -99.0 -99.0 -99.0 -99.0 -99.0  -99.  -99.
   31.-99.00 -99.0 -99.0 -99.0 -99.0 -99.0 -99.0 -99.0 -99.0 -99.0-99.00 -99.0 -99.0 -99.0 -99.0 -99.0  -99.  -99.
   46.-99.00 -99.0 -99.0 -99.0 -99.0 -99.0 -99.0 -99.0 -99.0 -99.0-99.00 -99.0 -99.0 -99.0 -99.0 -99.0  -99.  -99.
   56.-99.00 -99.0 -99.0 -99.0 -99.0 -99.0 -99.0 -99.0 -99.0 -99.0-99.00 -99.0 -99.0 -99.0 -99.0 -99.0  -99.  -99.
   66.-99.00 -99.0 -99.0 -99.0 -99.0 -99.0 -99.0 -99.0 -99.0 -99.0-99.00 -99.0 -99.0 -99.0 -99.0 -99.0  -99.  -99.
   91.-99.00 -99.0 -99.0 -99.0 -99.0 -99.0 -99.0 -99.0 -99.0 -99.0-99.00 -99.0 -99.0 -99.0 -99.0 -99.0  -99.  -99.
  111.-99.00 -99.0 -99.0 -99.0 -99.0 -99.0 -99.0 -99.0 -99.0 -99.0-99.00 -99.0 -99.0 -99.0 -99.0 -99.0  -99.  -99.
  132.-99.00 -99.0 -99.0 -99.0 -99.0 -99.0 -99.0 -99.0 -99.0 -99.0-99.00 -99.0 -99.0 -99.0 -99.0 -99.0  -99.  -99.
  152.-99.00 -99.0 -99.0 -99.0 -99.0 -99.0 -99.0 -99.0 -99.0 -99.0-99.00 -99.0 -99.0 -99.0 -99.0 -99.0  -99.  -99.
                    
    5.-99.00-99.00-99.00-99.00
   15.-99.00-99.00-99.00-99.00
   18.-99.00-99.00-99.00-99.00
   31.-99.00-99.00-99.00-99.00
   46.-99.00-99.00-99.00-99.00
   56.-99.00-99.00-99.00-99.00
   66.-99.00-99.00-99.00-99.00
   91.-99.00-99.00-99.00-99.00
  111.-99.00-99.00-99.00-99.00
  132.-99.00-99.00-99.00-99.00
  152.-99.00-99.00-99.00-99.00
*CULTIVAR           
IB1052 DK 611           IB0001  260.0 0.100 800.0 980.0  5.70 48.00
