*MODEL INPUT FILE            B     1     1     1   999     0
*FILES              
MODEL          CRGRO048
FILEX          UFBR9502.TMX                                                                                 
FILEA          UFBR9502.TMA                                                                                 
FILET          UFBR9502.TMT                                                                                 
SPECIES        TMGRO048.SPE C:\DSSAT48\GENOTYPE\                                                            
ECOTYPE        TMGRO048.ECO C:\DSSAT48\GENOTYPE\                                                            
CULTIVAR       TMGRO048.CUL C:\DSSAT48\GENOTYPE\                                                            
PESTS          TMGRO048.PST C:\DSSAT48\PEST\                                                                
SOILS          SOIL.SOL     C:\DSSAT48\SOIL\                                                                
WEATHERW       UFBR9501.WTH C:\DSSAT48\Weather\                                                             
OUTPUT         OVERVIEW
*SIMULATION CONTROL 
                   1     1     S 1995044  2150 Fert Trial               
                   Y     N     N     N     N     N     N     N     M
                   M     M     E     R     S     L     R     1     G     R     2     D     0
                   R     R     R     N     R
                   N     Y     Y     1     Y     Y     Y     Y     N     N     Y     N     N
!AUTOMATIC MANAGEM  
                   -99     -99   40.  100.   30.   45.   40.
                 30.   80.  100. GS000 IR007  10.0 0.750
                200.   50.   25. SI001 SI001
                100.    60   20.
                   157     -99   75.    0.
*EXP.DETAILS        
  1UFBR9502 TM SPRING 1995,SUNNY,SUB-IRR.,BRADENTON,FL                     
*TREATMENTS         
  1 1 0 0 Aauto irr,N-BAl 'OFF'    
*CULTIVARS          
   TM TM0007 Sunny S-D 2010 C
*FIELDS             
   UFBR0001 UFBR9501   0.0    0. DR000    0. 100.0  0000 SA     180. UFBR950001-99.00 -99.0
    -99.0000000000  -99.0000000000   -99.000               1.0  100.   1.0 -99.0   -99   -99
*INITIAL CONDITIONS 
   99    1995064     1     0  1.00  1.00  10.0   -99 -9.00 -9.00  -99.  -99.
      5. 0.133 0.500  1.00
     15. 0.133 0.500  1.00
     18. 0.133 0.500  1.00
     27. 0.220 0.500  1.00
     36. 0.220 0.500  1.00
     49. 0.300 0.300  1.00
     61. 0.392 0.025 0.083
     74. 0.400   0.0   0.0
     81. 0.400   0.0   0.0
    100. 0.400   0.0   0.0
    119. 0.400   0.0   0.0
    146. 0.400   0.0   0.0
    173. 0.400   0.0   0.0
    190. 0.400   0.0   0.0
    203. 0.400   0.0   0.0
*PLANTING DETAILS   
   1995072     -99   1.1   1.1     T     R  152.   90.   1.0    3.   28.  25.0   1.0 -99.0
*IRRIGATION         
   0.750   20.   80.   95.   500 IR007 500.0
   1995044 IR007  10.0
   1995045 IR007  10.0
   1995046 IR007   1.0
   1995047 IR007  20.0
   1995048 IR007   1.0
   1995049 IR007  20.0
   1995050 IR007  20.0
   1995051 IR007  10.0
   1995052 IR007  25.0
   1995053 IR007  10.0
   1995054 IR007  25.0
   1995055 IR007   1.0
   1995056 IR007  10.0
   1995057 IR007  10.0
   1995058 IR007  10.0
   1995059 IR007  10.0
   1995060 IR007  30.0
   1995061 IR007  30.0
   1995062 IR007  30.0
   1995063 IR007  30.0
   1995064 IR007  30.0
   1995065 IR007  30.0
   1995066 IR007  30.0
   1995067 IR007  30.0
   1995068 IR007  30.0
   1995069 IR007  30.0
   1995070 IR007  10.0
   1995071 IR007  10.0
   1995072 IR007   1.0
   1995073 IR007  20.0
   1995074 IR007   1.0
   1995075 IR007  20.0
   1995076 IR007  20.0
   1995077 IR007  10.0
   1995078 IR007  25.0
   1995079 IR007  10.0
   1995080 IR007  25.0
   1995081 IR007   1.0
   1995082 IR007  10.0
   1995083 IR007  10.0
   1995084 IR007  10.0
   1995085 IR007  10.0
   1995086 IR007  30.0
   1995087 IR007  30.0
   1995088 IR007  30.0
   1995089 IR007  30.0
   1995089 IR007  30.0
   1995090 IR007  30.0
   1995091 IR007  10.0
   1995092 IR007  25.0
   1995093 IR007  10.0
   1995094 IR007  25.0
   1995095 IR007   1.0
   1995096 IR007  10.0
   1995097 IR007  10.0
   1995098 IR007  10.0
   1995099 IR007  10.0
   1995100 IR007  30.0
   1995101 IR007  30.0
   1995102 IR007  30.0
   1995103 IR007  30.0
   1995104 IR007  30.0
   1995105 IR007  30.0
   1995106 IR007  30.0
   1995107 IR007  30.0
   1995108 IR007  30.0
   1995109 IR007  30.0
   1995110 IR007  10.0
   1995111 IR007  10.0
   1995112 IR007   1.0
   1995113 IR007  20.0
   1995114 IR007   1.0
   1995115 IR007  20.0
   1995116 IR007  20.0
   1995117 IR007  10.0
   1995118 IR007  25.0
   1995119 IR007  10.0
   1995120 IR007  25.0
   1995121 IR007   1.0
   1995122 IR007  10.0
   1995123 IR007  10.0
   1995124 IR007  10.0
   1995125 IR007  10.0
   1995126 IR007  30.0
   1995127 IR007  30.0
   1995128 IR007  30.0
   1995129 IR007  30.0
   1995130 IR007  30.0
   1995131 IR007  30.0
   1995132 IR007  30.0
   1995133 IR007  30.0
   1995134 IR007  30.0
   1995135 IR007  30.0
   1995136 IR007  30.0
   1995137 IR007  30.0
   1995138 IR007  30.0
   1995139 IR007  30.0
   1995140 IR007  10.0
   1995141 IR007  10.0
   1995142 IR007   1.0
   1995143 IR007  20.0
   1995144 IR007   1.0
   1995145 IR007  20.0
   1995146 IR007  20.0
   1995147 IR007  10.0
   1995148 IR007  25.0
   1995149 IR007  10.0
   1995150 IR007  25.0
   1995151 IR007   1.0
   1995152 IR007  10.0
   1995153 IR007  10.0
   1995154 IR007  10.0
   1995155 IR007  10.0
   1995156 IR007  30.0
   1995157 IR007  30.0
   1995158 IR007  30.0
   1995159 IR007  30.0
   1995160 IR007  30.0
   1995161 IR007  10.0
   1995162 IR007  25.0
   1995163 IR007  10.0
   1995164 IR007  25.0
   1995165 IR007   1.0
*FERTILIZERS        
   1995063 FE016 AP004    5.    0.  100.    0.    0.    0.     0
   1995064 FE016 AP004    5.    0.    0.  200.    0.    0.     0
   1995065 FE001 AP004    5.  200.    0.    0.    0.    0.     0
*RESIDUES           
*CHEMICALS          
*TILLAGE            
*ENVIRONMENT        
*HARVEST            
   1995157 GS000   -99   -99  100.    0.
*SOIL               
 UFBR950001  SCS         SA     180.   Eaugallie fine sand (IMPERVIOUS LAYER AT 120 CM)
 BRADENTON   U.S.A.       27.000  82.300 SANDY, SILICEOUS, HYPERTHERMIC, ALFIC, HAPLAQUOD  
 G      0.13  12.7  0.05   87.  1.00  0.97 IB001 IB001 IB001 -99  
    5.       0.022 0.133 0.423 1.000  18.4  1.22 1.020   0.8   1.1   0.0 0.090  6.00-99.00  3.90-99.00
   15.       0.022 0.133 0.423 1.000  18.4  1.22 1.020   0.8   1.1   0.0 0.090  6.00-99.00  3.90-99.00
   18.       0.022 0.133 0.423 1.000  18.4  1.22 1.020   0.8   1.1   0.0 0.090  6.00-99.00  3.90-99.00
   27.       0.022 0.111 0.430 0.300  15.8  1.51 0.700   0.6   2.9   0.0 0.060  5.00-99.00  2.60-99.00
   36.       0.022 0.111 0.430 0.300  15.8  1.51 0.700   0.6   2.9   0.0 0.060  5.00-99.00  2.60-99.00
   49.       0.022 0.111 0.430 0.010  21.1  1.62 0.140   0.6   1.9   0.0 0.010  4.80-99.00  0.20-99.00
   61.       0.022 0.111 0.430 0.010  21.1  1.62 0.140   0.6   1.9   0.0 0.010  4.80-99.00  0.20-99.00
   74.       0.022 0.111 0.430 0.010  21.1  1.62 0.140   0.6   1.9   0.0 0.010  4.80-99.00  0.20-99.00
   81.       0.035 0.248 0.396 0.000  22.4  1.60 1.200   3.7   4.8   0.0 0.100  4.50-99.00  8.10-99.00
  100.       0.013 0.159 0.374 0.000    0.  1.66 0.600   1.5   2.6   0.0 0.050  4.80-99.00  2.80-99.00
  119.       0.013 0.159 0.374 0.000    0.  1.66 0.600   1.5   2.6   0.0 0.050  4.80-99.00  2.80-99.00
  146.       0.028 0.252 0.374 0.000  7.10  1.66 0.530   2.4   2.9   0.0 0.040  4.90-99.00  4.10-99.00
  173.       0.028 0.252 0.374 0.000  7.10  1.66 0.530   2.4   2.9   0.0 0.040  4.90-99.00  4.10-99.00
  190.       0.070 0.260 0.324 0.000 0.500  1.79 0.210  13.0   3.0   0.0 0.020  4.80-99.00  5.70-99.00
  203.       0.134 0.283 0.294 0.000 0.100  1.87 0.140  21.8   2.1   0.0 0.010  4.20 99.00  6.70-99.00
                    
    5.-99.00 -99.0 -99.0 -99.0 -99.0 -99.0 -99.0 -99.0 -99.0 -99.0-99.00 -99.0 -99.0 -99.0 -99.0 -99.0  -99.  -99.
   15.-99.00 -99.0 -99.0 -99.0 -99.0 -99.0 -99.0 -99.0 -99.0 -99.0-99.00 -99.0 -99.0 -99.0 -99.0 -99.0  -99.  -99.
   18.-99.00 -99.0 -99.0 -99.0 -99.0 -99.0 -99.0 -99.0 -99.0 -99.0-99.00 -99.0 -99.0 -99.0 -99.0 -99.0  -99.  -99.
   27.-99.00 -99.0 -99.0 -99.0 -99.0 -99.0 -99.0 -99.0 -99.0 -99.0-99.00 -99.0 -99.0 -99.0 -99.0 -99.0  -99.  -99.
   36.-99.00 -99.0 -99.0 -99.0 -99.0 -99.0 -99.0 -99.0 -99.0 -99.0-99.00 -99.0 -99.0 -99.0 -99.0 -99.0  -99.  -99.
   49.-99.00 -99.0 -99.0 -99.0 -99.0 -99.0 -99.0 -99.0 -99.0 -99.0-99.00 -99.0 -99.0 -99.0 -99.0 -99.0  -99.  -99.
   61.-99.00 -99.0 -99.0 -99.0 -99.0 -99.0 -99.0 -99.0 -99.0 -99.0-99.00 -99.0 -99.0 -99.0 -99.0 -99.0  -99.  -99.
   74.-99.00 -99.0 -99.0 -99.0 -99.0 -99.0 -99.0 -99.0 -99.0 -99.0-99.00 -99.0 -99.0 -99.0 -99.0 -99.0  -99.  -99.
   81.-99.00 -99.0 -99.0 -99.0 -99.0 -99.0 -99.0 -99.0 -99.0 -99.0-99.00 -99.0 -99.0 -99.0 -99.0 -99.0  -99.  -99.
  100.-99.00 -99.0 -99.0 -99.0 -99.0 -99.0 -99.0 -99.0 -99.0 -99.0-99.00 -99.0 -99.0 -99.0 -99.0 -99.0  -99.  -99.
  119.-99.00 -99.0 -99.0 -99.0 -99.0 -99.0 -99.0 -99.0 -99.0 -99.0-99.00 -99.0 -99.0 -99.0 -99.0 -99.0  -99.  -99.
  146.-99.00 -99.0 -99.0 -99.0 -99.0 -99.0 -99.0 -99.0 -99.0 -99.0-99.00 -99.0 -99.0 -99.0 -99.0 -99.0  -99.  -99.
  173.-99.00 -99.0 -99.0 -99.0 -99.0 -99.0 -99.0 -99.0 -99.0 -99.0-99.00 -99.0 -99.0 -99.0 -99.0 -99.0  -99.  -99.
  190.-99.00 -99.0 -99.0 -99.0 -99.0 -99.0 -99.0 -99.0 -99.0 -99.0-99.00 -99.0 -99.0 -99.0 -99.0 -99.0  -99.  -99.
  203.-99.00 -99.0 -99.0 -99.0 -99.0 -99.0 -99.0 -99.0 -99.0 -99.0-99.00 -99.0 -99.0 -99.0 -99.0 -99.0  -99.  -99.
                    
    5.-99.00-99.00-99.00-99.00
   15.-99.00-99.00-99.00-99.00
   18.-99.00-99.00-99.00-99.00
   27.-99.00-99.00-99.00-99.00
   36.-99.00-99.00-99.00-99.00
   49.-99.00-99.00-99.00-99.00
   61.-99.00-99.00-99.00-99.00
   74.-99.00-99.00-99.00-99.00
   81.-99.00-99.00-99.00-99.00
  100.-99.00-99.00-99.00-99.00
  119.-99.00-99.00-99.00-99.00
  146.-99.00-99.00-99.00-99.00
  173.-99.00-99.00-99.00-99.00
  190.-99.00-99.00-99.00-99.00
  203.-99.00-99.00-99.00-99.00
*CULTIVAR           
TM0007 Sunny S-D 2010 C TM0001 12.33 0.000 24.40  3.00 19.00 45.20 52.00 1.360 300.0 300.0  0.73 0.004 26.00300.00 58.00   8.5 0.300 0.050
