*MODEL INPUT FILE            B     1     1     1   999     0
*FILES              
MODEL          CRGRO048
FILEX          GAGR9801.CPX                                                                                 
FILEA          GAGR9801.CPA                                                                                 
FILET          GAGR9801.CPT                                                                                 
SPECIES        CPGRO048.SPE C:\DSSAT48\GENOTYPE\                                                            
ECOTYPE        CPGRO048.ECO C:\DSSAT48\GENOTYPE\                                                            
CULTIVAR       CPGRO048.CUL C:\DSSAT48\GENOTYPE\                                                            
PESTS          CPGRO048.PST C:\DSSAT48\PEST\                                                                
SOILS          SOIL.SOL     C:\DSSAT48\SOIL\                                                                
WEATHERW       GAGR9626.WTH C:\DSSAT48\Weather\                                                             
OUTPUT         OVERVIEW
*SIMULATION CONTROL 
                   1     1     S 1998155  2150 GRIFFIN                  
                   Y     Y     Y     N     N     N     N     Y     M
                   M     M     E     R     S     L     R     1     G     R     2     D     0
                   R     R     R     N     M
                   N     Y     Y     1     Y     Y     Y     Y     Y     Y     Y     Y     Y
!AUTOMATIC MANAGEM  
                   -99     -99   40.  100.   30.   40.   10.
                 30.   50.  100. GS000 IR001  10.0 1.000
                 30.   50.   25. FE001 GS000
                100.     1   20.
                     0     -99  100.    0.
*EXP.DETAILS        
  1GAGR9801 CP GRIFFIN 1998 FIELD EXPERIMENT                               
*TREATMENTS         
  1 0 0 0 TVU 3046 INDIA           
*CULTIVARS          
   CP CP0003 TVU3046 - India 
*FIELDS             
   GAGF0001 GAGR9626   0.0    0. DR000    0. 100.0 00000 SL     191. GA00620001-99.00 -99.0
      0.0000000000    0.0000000000     0.000               1.0  100.   1.0   0.0   -99   -99
*INITIAL CONDITIONS 
   SB    1998155     0     0  1.00  1.00 -99.0     0  0.00  0.00  100.   15.
      5. 0.209  1.60  3.20
     15. 0.209  1.60  3.20
     18. 0.209  1.60  3.20
     28. 0.275  1.60  3.20
     53. 0.392 0.500 0.800
     77. 0.392 0.500 0.800
    102. 0.392 0.500 0.800
    127. 0.392 0.500 0.800
    148. 0.392 0.500 0.800
    170. 0.392 0.500 0.800
    191. 0.392 0.500 0.800
*PLANTING DETAILS   
   1998155 1998161   8.5   8.5     S     R   75.    0.   3.0  -99.  -99. -99.0 -99.0   0.0
*IRRIGATION         
   1.000   30.   50.  100. GS000 IR001  10.0
   1998160 IR004   4.0
   1998163 IR004  11.0
   1998167 IR004   8.0
   1998170 IR004   8.0
   1998177 IR004   5.0
   1998180 IR004  13.0
   1998183 IR004  22.0
   1998190 IR004  12.0
   1998194 IR004  13.0
   1998197 IR004  20.0
   1998200 IR004   5.0
   1998208 IR004  12.0
   1998215 IR004   6.0
   1998226 IR004  18.0
   1998230 IR004   6.0
   1998240 IR004   9.0
   1998246 IR004   4.0
   1998254 IR004   9.0
*FERTILIZERS        
   1998155 FE005 AP001    2.   73.    0.    0.    0.    0.   -99
   1998155 FE001 AP001    2.   47.    0.    0.    0.    0.   -99
*RESIDUES           
*CHEMICALS          
*TILLAGE            
*ENVIRONMENT        
*HARVEST            
*SOIL               
 GA00620001  SCS         SL     191.   LLOYD SERIES - SPALDING COUNTY, GA              
 GRIFFIN     USA          33.000 -84.300 RED YELLOW PODZOLIC                               
 R      0.14   9.0  0.60   76.  1.00  0.92 IB001 IB001 IB001 -99  
    5.       0.092 0.209 0.325 1.000  -99.  1.40 0.380  12.5  19.6   0.0  -9.0  5.50-99.00-99.00-99.00
   15.       0.092 0.209 0.325 1.000  -99.  1.40 0.380  12.5  19.6   0.0  -9.0  5.50-99.00-99.00-99.00
   18.       0.092 0.209 0.325 1.000  -99.  1.40 0.380  12.5  19.6   0.0  -9.0  5.50-99.00-99.00-99.00
   28.       0.158 0.275 0.344 0.750  -99.  1.40 0.120  27.5  17.4   0.0  -9.0  5.00-99.00-99.00-99.00
   53.       0.269 0.392 0.409 0.500  -99.  1.40 0.050  52.5  29.4   0.0  -9.0  5.00-99.00-99.00-99.00
   77.       0.269 0.392 0.409 0.500  -99.  1.40 0.050  52.5  29.4   0.0  -9.0  5.00-99.00-99.00-99.00
  102.       0.269 0.392 0.409 0.500  -99.  1.40 0.050  52.5  29.4   0.0  -9.0  5.00-99.00-99.00-99.00
  127.       0.269 0.392 0.409 0.500  -99.  1.40 0.050  52.5  29.4   0.0  -9.0  5.00-99.00-99.00-99.00
  148.       0.269 0.392 0.409 0.350  -99.  1.40 0.050  52.5  29.4   0.0  -9.0  5.00-99.00-99.00-99.00
  170.       0.269 0.392 0.409 0.350  -99.  1.40 0.050  52.5  29.4   0.0  -9.0  5.00-99.00-99.00-99.00
  191.       0.269 0.392 0.409 0.350  -99.  1.40 0.050  52.5  29.4   0.0  -9.0  5.00-99.00-99.00-99.00
                    
    5.-99.00 -99.0 -99.0 -99.0 -99.0 -99.0 -99.0 -99.0 -99.0 -99.0-99.00 -99.0 -99.0 -99.0 -99.0 -99.0  -99.  -99.
   15.-99.00 -99.0 -99.0 -99.0 -99.0 -99.0 -99.0 -99.0 -99.0 -99.0-99.00 -99.0 -99.0 -99.0 -99.0 -99.0  -99.  -99.
   18.-99.00 -99.0 -99.0 -99.0 -99.0 -99.0 -99.0 -99.0 -99.0 -99.0-99.00 -99.0 -99.0 -99.0 -99.0 -99.0  -99.  -99.
   28.-99.00 -99.0 -99.0 -99.0 -99.0 -99.0 -99.0 -99.0 -99.0 -99.0-99.00 -99.0 -99.0 -99.0 -99.0 -99.0  -99.  -99.
   53.-99.00 -99.0 -99.0 -99.0 -99.0 -99.0 -99.0 -99.0 -99.0 -99.0-99.00 -99.0 -99.0 -99.0 -99.0 -99.0  -99.  -99.
   77.-99.00 -99.0 -99.0 -99.0 -99.0 -99.0 -99.0 -99.0 -99.0 -99.0-99.00 -99.0 -99.0 -99.0 -99.0 -99.0  -99.  -99.
  102.-99.00 -99.0 -99.0 -99.0 -99.0 -99.0 -99.0 -99.0 -99.0 -99.0-99.00 -99.0 -99.0 -99.0 -99.0 -99.0  -99.  -99.
  127.-99.00 -99.0 -99.0 -99.0 -99.0 -99.0 -99.0 -99.0 -99.0 -99.0-99.00 -99.0 -99.0 -99.0 -99.0 -99.0  -99.  -99.
  148.-99.00 -99.0 -99.0 -99.0 -99.0 -99.0 -99.0 -99.0 -99.0 -99.0-99.00 -99.0 -99.0 -99.0 -99.0 -99.0  -99.  -99.
  170.-99.00 -99.0 -99.0 -99.0 -99.0 -99.0 -99.0 -99.0 -99.0 -99.0-99.00 -99.0 -99.0 -99.0 -99.0 -99.0  -99.  -99.
  191.-99.00 -99.0 -99.0 -99.0 -99.0 -99.0 -99.0 -99.0 -99.0 -99.0-99.00 -99.0 -99.0 -99.0 -99.0 -99.0  -99.  -99.
                    
    5.-99.00-99.00-99.00-99.00
   15.-99.00-99.00-99.00-99.00
   18.-99.00-99.00-99.00-99.00
   28.-99.00-99.00-99.00-99.00
   53.-99.00-99.00-99.00-99.00
   77.-99.00-99.00-99.00-99.00
  102.-99.00-99.00-99.00-99.00
  127.-99.00-99.00-99.00-99.00
  148.-99.00-99.00-99.00-99.00
  170.-99.00-99.00-99.00-99.00
  191.-99.00-99.00-99.00-99.00
*CULTIVAR           
CP0003 TVU3046 - India  CP0411 12.80 0.110 25.60  2.90  5.90 32.10  9.00 0.900 250.0 220.0  0.85 0.041  7.20  9.70 20.00  74.9 0.300 0.065
