*MODEL INPUT FILE            B     1     1     1   999     0
*FILES              
MODEL          CRGRO048
FILEX          MEKN2102.LTX                                                                                 
FILEA          MEKN2102.LTA                                                                                 
FILET          MEKN2102.LTT                                                                                 
SPECIES        LTGRO048.SPE C:\DSSAT48\GENOTYPE\                                                            
ECOTYPE        LTGRO048.ECO C:\DSSAT48\GENOTYPE\                                                            
CULTIVAR       LTGRO048.CUL C:\DSSAT48\GENOTYPE\                                                            
PESTS          LTGRO048.PST C:\DSSAT48\PEST\                                                                
SOILS          CF.SOL       C:\DSSAT48\SOIL\                                                                
WEATHERW       MEKN2003.WTH C:\DSSAT48\Weather\                                                             
OUTPUT         OVERVIEW
*SIMULATION CONTROL 
                   1     1     S 2020001  2150 2019 SIMULATION          
                   Y     Y     Y     N     N     N     N     N     M
                   M     M     E     F     S     L     R     1     P     R     2     D     0
                   R     R     R     N     M
                   N     Y     Y     1     Y     Y     Y     Y     N     N     Y     N     N
!AUTOMATIC MANAGEM  
                   -99     -99   40.  100.   30.   40.   10.
                 30.   50.  100. GS000 IR001  10.0 1.000
                 30.   50.   25. FE001 GS000
                100.     1   20.
                     0     -99  100.    0.
*EXP.DETAILS        
  1MEKN2102 LT IRRIGATION AT MOROCCO 2020-2022                             
*TREATMENTS         
  1 0 0 0 Meknes 2020-2021         
*CULTIVARS          
   LT CAND02 CDC Glamis      
*FIELDS             
   MEKN0001 MEKN2003   0.0    0.   -99    0. 100.0    0S SIL    150. CF_MEKN001-99.00 -99.0
      5.4800000191   33.8400001526    90.000               1.0  100.   1.0   0.0 FH101   -99
*INITIAL CONDITIONS 
   WH    2020001     0     0  1.00  1.00 -99.0     0  0.00  0.00  100.   15.
      5. 0.400 0.100  1.40
     15. 0.400 0.100  1.40
     20. 0.400 0.100  1.40
     30. 0.400 0.100  1.40
     60. 0.400 0.200  1.30
     90. 0.400 0.200  1.10
    120. 0.393 0.200  1.10
    150. 0.390 0.200  1.10
*PLANTING DETAILS   
   2020350     -99 100.0 100.0     S     R   23.  -99.   3.0  -99.  -99. -99.0 -99.0   0.0
*IRRIGATION         
   1.000   30.   75.  -99. GS000 IR001   0.0
   2020350 IR005  20.0
   2021010 IR005  20.0
   2021025 IR005  20.0
   2021040 IR005  20.0
   2021055 IR005  20.0
*FERTILIZERS        
*RESIDUES           
*CHEMICALS          
*TILLAGE            
*ENVIRONMENT        
*HARVEST            
*SOIL               
 CF_MEKN001  CAL LTAR    SIL    150.   Calculated from CAF plot data                   
 Meknes,     Morocco      33.800   5.480 -99                                               
 BK     0.17   6.0  0.50   61.  1.00  1.00 SA001 SA001 SA001 -99  
    5.       0.262 0.462 0.481 1.000 0.150  1.27 2.000  36.3  48.8   0.0  -9.0  8.50-99.00-99.00-99.00
   15.       0.262 0.462 0.481 1.000 0.150  1.27 2.000  36.3  48.8   0.0  -9.0  8.50-99.00-99.00-99.00
   20.       0.262 0.462 0.481 1.000 0.150  1.27 2.000  36.3  48.8   0.0  -9.0  8.50-99.00-99.00-99.00
   30.       0.262 0.462 0.481 0.607 0.150  1.27 2.000  36.3  48.8   0.0  -9.0  8.50-99.00-99.00-99.00
   60.       0.262 0.462 0.487 0.165 0.150  1.47 2.000  36.3  48.8   0.0  -9.0  8.50-99.00-99.00-99.00
   90.       0.262 0.462 0.487 0.165 0.150  1.47 2.000  36.3  48.8   0.0  -9.0  8.50-99.00-99.00-99.00
  120.       0.262 0.462 0.487 0.165 0.150  1.47 2.000  36.3  48.8   0.0  -9.0  8.50-99.00-99.00-99.00
  150.       0.262 0.462 0.487 0.165 0.150  1.47 2.000  36.3  48.8   0.0  -9.0  8.50-99.00-99.00-99.00
                    
    5.-99.00 -99.0 -99.0 -99.0 -99.0 -99.0 -99.0 -99.0 -99.0 -99.0-99.00 -99.0 -99.0 -99.0 -99.0 -99.0  -99.  -99.
   15.-99.00 -99.0 -99.0 -99.0 -99.0 -99.0 -99.0 -99.0 -99.0 -99.0-99.00 -99.0 -99.0 -99.0 -99.0 -99.0  -99.  -99.
   20.-99.00 -99.0 -99.0 -99.0 -99.0 -99.0 -99.0 -99.0 -99.0 -99.0-99.00 -99.0 -99.0 -99.0 -99.0 -99.0  -99.  -99.
   30.-99.00 -99.0 -99.0 -99.0 -99.0 -99.0 -99.0 -99.0 -99.0 -99.0-99.00 -99.0 -99.0 -99.0 -99.0 -99.0  -99.  -99.
   60.-99.00 -99.0 -99.0 -99.0 -99.0 -99.0 -99.0 -99.0 -99.0 -99.0-99.00 -99.0 -99.0 -99.0 -99.0 -99.0  -99.  -99.
   90.-99.00 -99.0 -99.0 -99.0 -99.0 -99.0 -99.0 -99.0 -99.0 -99.0-99.00 -99.0 -99.0 -99.0 -99.0 -99.0  -99.  -99.
  120.-99.00 -99.0 -99.0 -99.0 -99.0 -99.0 -99.0 -99.0 -99.0 -99.0-99.00 -99.0 -99.0 -99.0 -99.0 -99.0  -99.  -99.
  150.-99.00 -99.0 -99.0 -99.0 -99.0 -99.0 -99.0 -99.0 -99.0 -99.0-99.00 -99.0 -99.0 -99.0 -99.0 -99.0  -99.  -99.
                    
    5.-99.00-99.00-99.00-99.00
   15.-99.00-99.00-99.00-99.00
   20.-99.00-99.00-99.00-99.00
   30.-99.00-99.00-99.00-99.00
   60.-99.00-99.00-99.00-99.00
   90.-99.00-99.00-99.00-99.00
  120.-99.00-99.00-99.00-99.00
  150.-99.00-99.00-99.00-99.00
*CULTIVAR           
CAND02 CDC Glamis       LAT001 15.40-0.110 28.00  5.00  8.00 22.50 16.00 0.860 240.0  70.0  1.00 0.065 20.00  2.00 14.00  67.0 0.286 0.020
