*MODEL INPUT FILE            B     1     1     1   999     0
*FILES              
MODEL          CRGRO048
FILEX          INRA0502.SUX                                                                                 
FILEA          INRA0502.SUA                                                                                 
FILET          INRA0502.SUT                                                                                 
SPECIES        SUGRO048.SPE C:\DSSAT48\GENOTYPE\                                                            
ECOTYPE        SUGRO048.ECO C:\DSSAT48\GENOTYPE\                                                            
CULTIVAR       SUGRO048.CUL C:\DSSAT48\GENOTYPE\                                                            
PESTS          SUGRO048.PST C:\DSSAT48\PEST\                                                                
SOILS          SOIL.SOL     C:\DSSAT48\SOIL\                                                                
WEATHERW       AUZE0501.WTH C:\DSSAT48\Weather\                                                             
OUTPUT         OVERVIEW
*SIMULATION CONTROL 
                   1     1     S 2005001  2150 INRAE 2005 experiment 1  
                   Y     Y     N     N     N     N     N     N     M
                   M     M     E     R     S     L     R     1     P     R     2     D     0
                   R     R     R     N     R
                   N     Y     Y     1     Y     N     Y     Y     N     N     Y     N     N
!AUTOMATIC MANAGEM  
                   -99     -99   40.  100.   30.   40.   10.
                 30.   50.  100. GS000 IR001  10.0 1.000
                 30.   50.   25. FE001 GS000
                100.     1   20.
                     0     -99  100.    0.
*EXP.DETAILS        
  1INRA0502 SU RESPONSE OF SUNFLOWER TO PLANT POPULATION                   
*TREATMENTS         
  1 1 0 0 Heliasol PP1             
*CULTIVARS          
   SU IB0021 Heliasol RM     
*FIELDS             
   INRA0001 AUZE0501   0.0    0. DR000    0. 100.0 00000 SL     150. INRAE00001-99.00 -99.0
      0.0000000000    0.0000000000     0.000               1.0  100.   1.0   0.0   -99   -99
*INITIAL CONDITIONS 
   WH    2005001  2000     0  0.00  0.00 -99.0  3000  0.80  0.00  100.   30.
      5. 0.200 0.400  3.60
     15. 0.200 0.400  3.60
     30. 0.200 0.400  3.60
     45. 0.200 0.200  3.60
     60. 0.200 0.200  3.60
     90. 0.200 0.200  3.60
    120. 0.200 0.200  3.60
    150. 0.200 0.200  3.60
*PLANTING DETAILS   
   2005102 2005117   1.0   1.0     S     R   70.    0.   5.0  -99.  -99. -99.0 -99.0   0.0
*IRRIGATION         
   1.000   30.   50.  100. GS000 IR001  10.0
   2005153 IR005  15.0
   2005172 IR005  35.0
   2005192 IR005  30.0
   2005202 IR005  45.0
*FERTILIZERS        
   2005117 FE017 AP005   10.   80.  -99.  -99.  -99.  -99.   -99
*RESIDUES           
*CHEMICALS          
*TILLAGE            
   2005002 TI042  30.0
   2005032 TI009  10.0
   2005039 TI009  10.0
   2005091 TI011  10.0
   2005102 TI033   5.0
*ENVIRONMENT        
*HARVEST            
   2005258 GS000   -99   -99  100.    0.
*SOIL               
 INRAE00001  INRAE       SL     150.   INRAE - MEDIUM SANDY LOAM                       
 Generic     Generic      43.500   1.500 Generic                                           
 -99    0.13   6.0  0.50   70.  1.00  1.00 IB001 IB001 IB001 -99  
    5.       0.080 0.230 0.359 1.000  -99.  1.50 2.500  10.0  30.0   0.0 0.070  6.50-99.00-99.00-99.00
   15.       0.080 0.230 0.359 1.000  -99.  1.50 2.500  10.0  30.0   0.0 0.070  6.50-99.00-99.00-99.00
   30.       0.080 0.230 0.359 1.000  -99.  1.50 2.000  10.0  30.0   0.0 0.070  6.50-99.00-99.00-99.00
   45.       0.080 0.230 0.360 0.100  -99.  1.50 1.500  10.0  30.0   0.0 0.060  6.50-99.00-99.00-99.00
   60.       0.080 0.230 0.360 0.100  -99.  1.50 1.500  10.0  30.0   0.0 0.060  6.50-99.00-99.00-99.00
   90.       0.080 0.230 0.361 0.100  -99.  1.50 1.200  10.0  30.0   0.0 0.040  6.50-99.00-99.00-99.00
  120.       0.080 0.230 0.359 0.100  -99.  1.50 0.700  10.0  30.0   0.0 0.030  6.50-99.00-99.00-99.00
  150.       0.080 0.230 0.360 0.100  -99.  1.50 0.500  10.0  30.0   0.0 0.010  6.50-99.00-99.00-99.00
                    
    5.-99.00 -99.0 -99.0 -99.0 -99.0 -99.0 -99.0 -99.0 -99.0 -99.0-99.00 -99.0 -99.0 -99.0 -99.0 -99.0  -99.  -99.
   15.-99.00 -99.0 -99.0 -99.0 -99.0 -99.0 -99.0 -99.0 -99.0 -99.0-99.00 -99.0 -99.0 -99.0 -99.0 -99.0  -99.  -99.
   30.-99.00 -99.0 -99.0 -99.0 -99.0 -99.0 -99.0 -99.0 -99.0 -99.0-99.00 -99.0 -99.0 -99.0 -99.0 -99.0  -99.  -99.
   45.-99.00 -99.0 -99.0 -99.0 -99.0 -99.0 -99.0 -99.0 -99.0 -99.0-99.00 -99.0 -99.0 -99.0 -99.0 -99.0  -99.  -99.
   60.-99.00 -99.0 -99.0 -99.0 -99.0 -99.0 -99.0 -99.0 -99.0 -99.0-99.00 -99.0 -99.0 -99.0 -99.0 -99.0  -99.  -99.
   90.-99.00 -99.0 -99.0 -99.0 -99.0 -99.0 -99.0 -99.0 -99.0 -99.0-99.00 -99.0 -99.0 -99.0 -99.0 -99.0  -99.  -99.
  120.-99.00 -99.0 -99.0 -99.0 -99.0 -99.0 -99.0 -99.0 -99.0 -99.0-99.00 -99.0 -99.0 -99.0 -99.0 -99.0  -99.  -99.
  150.-99.00 -99.0 -99.0 -99.0 -99.0 -99.0 -99.0 -99.0 -99.0 -99.0-99.00 -99.0 -99.0 -99.0 -99.0 -99.0  -99.  -99.
                    
    5.-99.00-99.00-99.00-99.00
   15.-99.00-99.00-99.00-99.00
   30.-99.00-99.00-99.00-99.00
   45.-99.00-99.00-99.00-99.00
   60.-99.00-99.00-99.00-99.00
   90.-99.00-99.00-99.00-99.00
  120.-99.00-99.00-99.00-99.00
  150.-99.00-99.00-99.00-99.00
*CULTIVAR           
IB0021 Heliasol RM      SU0702 15.00-0.086 17.60  5.50 10.20 28.40 14.00 1.900 240.0 200.0  0.76 0.060 24.00  2.00  4.20  68.0 0.140 0.480
