*MODEL INPUT FILE            B     1     1     1   999     0
*FILES              
MODEL          CRGRO048
FILEX          ITIN0301.PPX                                                                                 
FILEA          ITIN0301.PPA                                                                                 
FILET          ITIN0301.PPT                                                                                 
SPECIES        PPGRO048.SPE C:\DSSAT48\GENOTYPE\                                                            
ECOTYPE        PPGRO048.ECO C:\DSSAT48\GENOTYPE\                                                            
CULTIVAR       PPGRO048.CUL C:\DSSAT48\GENOTYPE\                                                            
PESTS          PPGRO048.PST C:\DSSAT48\PEST\                                                                
SOILS          SOIL.SOL     C:\DSSAT48\SOIL\                                                                
WEATHERW       ITIN0301.WTH C:\DSSAT48\Weather\                                                             
OUTPUT         OVERVIEW
*SIMULATION CONTROL 
                   1     1     S 2003001  2150 ICPL88039                
                   Y     Y     Y     N     N     N     N     Y     M
                   M     M     E     R     S     L     R     1     P     R     2     D     0
                   R     R     R     R     R
                   N     Y     Y     1     Y     Y     Y     N     N     Y     Y     Y     Y
!AUTOMATIC MANAGEM  
                   -99     -99   40.  100.   30.   40.   10.
                 30.   70.  100. IB001 IB001  10.0 0.750
                 30.   50.   25. IB001 IB001
                100.     1   20.
                     0     -99  100.    0.
*EXP.DETAILS        
  1ITIN0301 PP IRRIGATED & NON-IRRIGATED, INDORE INDIA                     
*TREATMENTS         
  1 1 1 0 2003 ICPL88039           
*CULTIVARS          
   PP I88039 ICRISAT ICPL8803
*FIELDS             
   ITIN0001 ITIN0301   0.0    0. IB000    0. 100.0 00000 -99    180. IN00020001-99.00 -99.0
     22.3999996185   75.5000000000   -99.000               1.0  100.   1.0 -99.0   -99   -99
*INITIAL CONDITIONS 
   PP    2003177   100     0  1.00  1.00 -99.0     0  0.00  0.00  100.    0.
      5. 0.265 0.010 0.010
     15. 0.265 0.010 0.010
     30. 0.265 0.010 0.010
     45. 0.207 0.010 0.010
     60. 0.207 0.010 0.010
     90. 0.172 0.010 0.010
    120. 0.390 0.010 0.010
    150. 0.390 0.010 0.010
    160. 0.390 0.010 0.010
*PLANTING DETAILS   
   2003177     -99 -99.0  45.0     S     R   45.    0.   2.5  -99.  -99. -99.0 -99.0 -99.0
*IRRIGATION         
   0.750   30.   75.  -99. GS000 IR001   0.0
   2003300 IR001  55.0
*FERTILIZERS        
   2003177 FE005   001    5.   20.   40.   20.  -99.  -99.   -99
*RESIDUES           
*CHEMICALS          
*TILLAGE            
*ENVIRONMENT        
*HARVEST            
   2004015 GS000   -99   -99  100.    0.
*SOIL               
 IN00020001  SCS         -99    180.   BLACK SOIL, JNKVV, INDORE,MP                    
 JNKVV       INDIA        22.000  75.500 TYPIC HAPLUSTERT, FINE, MONTMORILLONITIC          
 BN     0.11   6.0  0.50   70.  1.00  0.88 IB001 IB001 IB001 -99  
    5.       0.177 0.400 0.602 1.000  -99.  1.36 0.600 -99.0 -99.0 -99.0  -9.0  8.00-99.00-99.00-99.00
   15.       0.177 0.400 0.602 1.000  -99.  1.36 0.600 -99.0 -99.0 -99.0  -9.0  8.00-99.00-99.00-99.00
   30.       0.177 0.400 0.602 1.000  -99.  1.36 0.600 -99.0 -99.0 -99.0  -9.0  8.00-99.00-99.00-99.00
   45.       0.177 0.390 0.603 1.000  -99.  1.36 0.640 -99.0 -99.0 -99.0  -9.0  8.10-99.00-99.00-99.00
   60.       0.177 0.390 0.603 1.000  -99.  1.36 0.640 -99.0 -99.0 -99.0  -9.0  8.10-99.00-99.00-99.00
   90.       0.177 0.390 0.603 1.000  -99.  1.36 0.640 -99.0 -99.0 -99.0  -9.0  8.10-99.00-99.00-99.00
  120.       0.177 0.390 0.602 1.000  -99.  1.36 0.600 -99.0 -99.0 -99.0  -9.0  8.10-99.00-99.00-99.00
  150.       0.177 0.390 0.603 1.000  -99.  1.36 0.600 -99.0 -99.0 -99.0  -9.0  8.10-99.00-99.00-99.00
  160.       0.177 0.390 0.603 1.000  -99.  1.36 0.600 -99.0 -99.0 -99.0  -9.0  8.10-99.00-99.00-99.00
                    
    5.-99.00 -99.0 -99.0 -99.0 -99.0 -99.0 -99.0 -99.0 -99.0 -99.0-99.00 -99.0 -99.0 -99.0 -99.0 -99.0  -99.  -99.
   15.-99.00 -99.0 -99.0 -99.0 -99.0 -99.0 -99.0 -99.0 -99.0 -99.0-99.00 -99.0 -99.0 -99.0 -99.0 -99.0  -99.  -99.
   30.-99.00 -99.0 -99.0 -99.0 -99.0 -99.0 -99.0 -99.0 -99.0 -99.0-99.00 -99.0 -99.0 -99.0 -99.0 -99.0  -99.  -99.
   45.-99.00 -99.0 -99.0 -99.0 -99.0 -99.0 -99.0 -99.0 -99.0 -99.0-99.00 -99.0 -99.0 -99.0 -99.0 -99.0  -99.  -99.
   60.-99.00 -99.0 -99.0 -99.0 -99.0 -99.0 -99.0 -99.0 -99.0 -99.0-99.00 -99.0 -99.0 -99.0 -99.0 -99.0  -99.  -99.
   90.-99.00 -99.0 -99.0 -99.0 -99.0 -99.0 -99.0 -99.0 -99.0 -99.0-99.00 -99.0 -99.0 -99.0 -99.0 -99.0  -99.  -99.
  120.-99.00 -99.0 -99.0 -99.0 -99.0 -99.0 -99.0 -99.0 -99.0 -99.0-99.00 -99.0 -99.0 -99.0 -99.0 -99.0  -99.  -99.
  150.-99.00 -99.0 -99.0 -99.0 -99.0 -99.0 -99.0 -99.0 -99.0 -99.0-99.00 -99.0 -99.0 -99.0 -99.0 -99.0  -99.  -99.
  160.-99.00 -99.0 -99.0 -99.0 -99.0 -99.0 -99.0 -99.0 -99.0 -99.0-99.00 -99.0 -99.0 -99.0 -99.0 -99.0  -99.  -99.
                    
    5.-99.00-99.00-99.00-99.00
   15.-99.00-99.00-99.00-99.00
   30.-99.00-99.00-99.00-99.00
   45.-99.00-99.00-99.00-99.00
   60.-99.00-99.00-99.00-99.00
   90.-99.00-99.00-99.00-99.00
  120.-99.00-99.00-99.00-99.00
  150.-99.00-99.00-99.00-99.00
  160.-99.00-99.00-99.00-99.00
*CULTIVAR           
I88039 ICRISAT ICPL8803 PP0002 11.60 0.740 29.30  9.10 25.80 29.01 23.23 1.060 320.0 171.4  0.68 0.100 23.40  1.81 18.00  75.0 0.223 0.015
