*MODEL INPUT FILE            B     1     1     1   999     0
*FILES              
MODEL          CRGRO048
FILEX          GHNY9701.PNX                                                                                 
FILEA          GHNY9701.PNA                                                                                 
FILET          GHNY9701.PNT                                                                                 
SPECIES        PNGRO048.SPE C:\DSSAT48\GENOTYPE\                                                            
ECOTYPE        PNGRO048.ECO C:\DSSAT48\GENOTYPE\                                                            
CULTIVAR       PNGRO048.CUL C:\DSSAT48\GENOTYPE\                                                            
PESTS          PNGRO048.PST C:\DSSAT48\PEST\                                                                
SOILS          GH.SOL       C:\DSSAT48\SOIL\                                                                
WEATHERW       GHNY9701.WTH C:\DSSAT48\Weather\                                                             
OUTPUT         OVERVIEW
*SIMULATION CONTROL 
                   1     1     S 1997149  2150 DEFAULT SIMULATION CONTR 
                   Y     Y     Y     N     N     Y     N     N     M
                   M     M     E     R     S     L     R     1     G     R     2     D     0
                   R     R     N     N     M
                   N     Y     Y     1     Y     N     Y     Y     N     Y     Y     N     N
!AUTOMATIC MANAGEM  
                   -99     -99   40.  100.   30.   40.   10.
                 30.   50.  100. GS000 IR001  10.0 1.000
                 30.   50.   25. FE001 GS000
                100.     1   20.
                     0     -99  100.    0.
*EXP.DETAILS        
  1GHNY9701 PN 1997 VARIETY X PLANTING DATE EXPERIMENT                     
*TREATMENTS         
  1 0 0 0 97 DATE1 CHINESE-DEF     
*CULTIVARS          
   PN GH0001 CHINESE TMV2 TAM
*FIELDS             
   GHNY0001 GHNY9701   0.0    0. DR000    0. 100.0 00000 SALO   -99. GH00970001-99.00 -99.0
      0.0000000000    0.0000000000     0.000               1.0  100.   1.0   0.0   -99   -99
*INITIAL CONDITIONS 
   PN    1997149   100     0  1.00  1.00 -99.0  1000  0.53  0.00    0.   15.
      5. 0.108 0.010 0.010
     15. 0.108 0.010 0.010
     30. 0.108 0.010 0.010
     45. 0.227 0.010 0.010
     60. 0.213 0.010 0.010
     90. 0.196 0.010 0.010
*PLANTING DETAILS   
   1997149     -99  10.0  10.0     S     R   50.    0.   5.0  -99.  -99. -99.0 -99.0   0.0
*IRRIGATION         
   1.000    0.    0.    0. GS000 IR001   0.0
*FERTILIZERS        
*RESIDUES           
*CHEMICALS          
*TILLAGE            
*ENVIRONMENT        
*HARVEST            
*SOIL               
 GH00970001  Naab site1D SALO   -99.  SAVANNA OCHROSOL                                 
 NYANKPALA   GHANA         9.416   0.966 PALEUSTALF                                        
 BN     0.13   6.0  0.40   76.  1.00  0.84 IB001 IB001 IB001 -99  
    5.       0.095 0.257 0.359 1.000  -99.  1.39 0.410   7.0  18.2   6.2  -9.0  6.70-99.00-99.00  0.00
   15.       0.060 0.227 0.359 1.000  -99.  1.39 0.410   7.0  18.2   6.2  -9.0  6.70-99.00-99.00  0.00
   30.       0.060 0.228 0.340 0.700  -99.  1.59 0.320  11.3  24.5  11.4  -9.0  6.40-99.00-99.00  0.00
   45.       0.105 0.229 0.342 0.350  -99.  1.59 0.280  15.0  27.9  47.1  -9.0  6.10-99.00-99.00  0.00
   60.       0.120 0.205 0.342 0.250  -99.  1.63 0.280  15.5  27.5  47.1  -9.0  6.10-99.00-99.00  0.00
   90.       0.130 0.200 0.347 0.050  -99.  1.45 0.170  18.2  27.7  47.5  -9.0  6.00-99.00-99.00  0.00
                    
    5.-99.00 -99.0 -99.0 -99.0 -99.0 -99.0 -99.0 -99.0 -99.0 -99.0-99.00 -99.0 -99.0 -99.0 -99.0 -99.0  -99.  -99.
   15.-99.00 -99.0 -99.0 -99.0 -99.0 -99.0 -99.0 -99.0 -99.0 -99.0-99.00 -99.0 -99.0 -99.0 -99.0 -99.0  -99.  -99.
   30.-99.00 -99.0 -99.0 -99.0 -99.0 -99.0 -99.0 -99.0 -99.0 -99.0-99.00 -99.0 -99.0 -99.0 -99.0 -99.0  -99.  -99.
   45.-99.00 -99.0 -99.0 -99.0 -99.0 -99.0 -99.0 -99.0 -99.0 -99.0-99.00 -99.0 -99.0 -99.0 -99.0 -99.0  -99.  -99.
   60.-99.00 -99.0 -99.0 -99.0 -99.0 -99.0 -99.0 -99.0 -99.0 -99.0-99.00 -99.0 -99.0 -99.0 -99.0 -99.0  -99.  -99.
   90.-99.00 -99.0 -99.0 -99.0 -99.0 -99.0 -99.0 -99.0 -99.0 -99.0-99.00 -99.0 -99.0 -99.0 -99.0 -99.0  -99.  -99.
                    
    5.-99.00-99.00-99.00-99.00
   15.-99.00-99.00-99.00-99.00
   30.-99.00-99.00-99.00-99.00
   45.-99.00-99.00-99.00-99.00
   60.-99.00-99.00-99.00-99.00
   90.-99.00-99.00-99.00-99.00
*CULTIVAR           
GH0001 CHINESE TMV2 TAM PN0019 11.84 0.000 18.00  7.00 17.50 53.00 73.00 1.200 270.0  20.0  0.72 0.360 29.00  1.65 15.00  74.5 0.270 0.510
