*MODEL INPUT FILE            B     1     1     1   999     0
*FILES              
MODEL          CRGRO048
FILEX          TXTE8401.COX                                                                                 
FILEA          TXTE8401.COA                                                                                 
FILET          TXTE8401.COT                                                                                 
SPECIES        COGRO048.SPE C:\DSSAT48\GENOTYPE\                                                            
ECOTYPE        COGRO048.ECO C:\DSSAT48\GENOTYPE\                                                            
CULTIVAR       COGRO048.CUL C:\DSSAT48\GENOTYPE\                                                            
PESTS          COGRO048.PST C:\DSSAT48\PEST\                                                                
SOILS          TX.SOL       C:\DSSAT48\SOIL\                                                                
WEATHERW       TXBD8401.WTH C:\DSSAT48\Weather\                                                             
OUTPUT         OVERVIEW
*SIMULATION CONTROL 
                   1     1     E 1984156  2150 1984 START AT EMER       
                   Y     Y     N     N     N     N     N     N     M
                   M     M     E     R     S     L     R     1     G     R     2     D     0
                   R     R     R     N     M
                   N     Y     Y     1     Y     Y     Y     Y     N     N     Y     N     N
!AUTOMATIC MANAGEM  
                   -99     -99   40.  100.   30.   40.   10.
                 30.   50.  100. GS000 IR001  10.0 1.000
                 30.   50.   25. FE001 GS000
                100.     1   20.
                     0     -99  100.    0.
*EXP.DETAILS        
  1TXTE8401 CO 1984 COTTON ROOT GROWTH AND SOIL WATER EXTRACTION           
*TREATMENTS         
  1 1 1 0 1984 season              
*CULTIVARS          
   CO TX0003 GP 3774 (RLD,LAI
*FIELDS             
   TXBD0001 TXBD8401   0.0  -99. DR000  -99. 100.0   -99 C      210. TXBD000005-99.00 -99.0
    -99.0000000000  -99.0000000000   -99.000               1.0  100.   1.0 -99.0   -99   -99
*INITIAL CONDITIONS 
   99    1984156     0     0  1.00  1.00 -99.0     0  0.00  0.00  100.    0.
      5. 0.180 0.500 0.500
     15. 0.180 0.500 0.500
     30. 0.240 0.500 0.500
     45. 0.250 0.500 0.500
     60. 0.300 0.500 0.500
     90. 0.340 0.500 0.500
    120. 0.370 0.500 0.500
    150. 0.370 0.500 0.500
    180. 0.370 0.500 0.500
    210. 0.350 0.500 0.500
*PLANTING DETAILS   
   1984156 1984156 -99.0  15.0     S     R   68.  -99.   6.0  -99.  -99. -99.0 -99.0 -99.0
*IRRIGATION         
   0.950   30.   75.  -99. GS000 IR001  10.0
   1984193 IR004  32.0
   1984194 IR004  29.0
*FERTILIZERS        
   1984156 FE004 AP009    6.   45.  -99.  -99.  -99.  -99.   -99
   1984220 FE004 AP009    6.   40.  -99.  -99.  -99.  -99.   -99
*RESIDUES           
*CHEMICALS          
*TILLAGE            
*ENVIRONMENT        
*HARVEST            
*SOIL               
 TXBD000005  IBSNAT      C      210. DEFAULT - DEEP SILTY CLAY                         
 Generic     Generic      -0.009  -0.099 Generic                                           
 -99    0.11   6.0  0.40   76.  1.00  1.00 IB001 IB001 IB001 -99  
    5.       0.150 0.300 0.481 1.000 0.500  1.30 1.750  50.0  45.0   0.0 0.170  6.50-99.00-99.00-99.00
   15.       0.150 0.300 0.481 1.000 0.200  1.30 1.750  50.0  45.0   0.0 0.170  6.50-99.00-99.00-99.00
   30.       0.150 0.300 0.482 0.700 0.200  1.30 1.600  50.0  45.0   0.0 0.170  6.50-99.00-99.00-99.00
   45.       0.180 0.320 0.465 0.400 0.200  1.35 1.450  50.0  45.0   0.0 0.140  6.50-99.00-99.00-99.00
   60.       0.190 0.330 0.465 0.300 0.200  1.35 1.450  50.0  45.0   0.0 0.140  6.50-99.00-99.00-99.00
   90.       0.210 0.350 0.468 0.240 0.200  1.35 1.100  50.0  45.0   0.0 0.110  6.50-99.00-99.00-99.00
  120.       0.230 0.370 0.452 0.260 0.200  1.40 0.650  50.0  45.0   0.0 0.060  6.50-99.00-99.00-99.00
  150.       0.245 0.390 0.455 0.200 0.200  1.40 0.300  50.0  45.0   0.0 0.030  6.50-99.00-99.00-99.00
  180.       0.245 0.390 0.457 0.180 0.200  1.40 0.100  50.0  45.0   0.0 0.010  6.50-99.00-99.00-99.00
  210.       0.245 0.390 0.457 0.140 0.200  1.40 0.010  50.0  45.0   0.0   0.0  6.50-99.00-99.00-99.00
                    
    5.-99.00 -99.0 -99.0 -99.0 -99.0 -99.0 -99.0 -99.0 -99.0 -99.0-99.00 -99.0 -99.0 -99.0 -99.0 -99.0  -99.  -99.
   15.-99.00 -99.0 -99.0 -99.0 -99.0 -99.0 -99.0 -99.0 -99.0 -99.0-99.00 -99.0 -99.0 -99.0 -99.0 -99.0  -99.  -99.
   30.-99.00 -99.0 -99.0 -99.0 -99.0 -99.0 -99.0 -99.0 -99.0 -99.0-99.00 -99.0 -99.0 -99.0 -99.0 -99.0  -99.  -99.
   45.-99.00 -99.0 -99.0 -99.0 -99.0 -99.0 -99.0 -99.0 -99.0 -99.0-99.00 -99.0 -99.0 -99.0 -99.0 -99.0  -99.  -99.
   60.-99.00 -99.0 -99.0 -99.0 -99.0 -99.0 -99.0 -99.0 -99.0 -99.0-99.00 -99.0 -99.0 -99.0 -99.0 -99.0  -99.  -99.
   90.-99.00 -99.0 -99.0 -99.0 -99.0 -99.0 -99.0 -99.0 -99.0 -99.0-99.00 -99.0 -99.0 -99.0 -99.0 -99.0  -99.  -99.
  120.-99.00 -99.0 -99.0 -99.0 -99.0 -99.0 -99.0 -99.0 -99.0 -99.0-99.00 -99.0 -99.0 -99.0 -99.0 -99.0  -99.  -99.
  150.-99.00 -99.0 -99.0 -99.0 -99.0 -99.0 -99.0 -99.0 -99.0 -99.0-99.00 -99.0 -99.0 -99.0 -99.0 -99.0  -99.  -99.
  180.-99.00 -99.0 -99.0 -99.0 -99.0 -99.0 -99.0 -99.0 -99.0 -99.0-99.00 -99.0 -99.0 -99.0 -99.0 -99.0  -99.  -99.
  210.-99.00 -99.0 -99.0 -99.0 -99.0 -99.0 -99.0 -99.0 -99.0 -99.0-99.00 -99.0 -99.0 -99.0 -99.0 -99.0  -99.  -99.
                    
    5.-99.00-99.00-99.00-99.00
   15.-99.00-99.00-99.00-99.00
   30.-99.00-99.00-99.00-99.00
   45.-99.00-99.00-99.00-99.00
   60.-99.00-99.00-99.00-99.00
   90.-99.00-99.00-99.00-99.00
  120.-99.00-99.00-99.00-99.00
  150.-99.00-99.00-99.00-99.00
  180.-99.00-99.00-99.00-99.00
  210.-99.00-99.00-99.00-99.00
*CULTIVAR           
TX0003 GP 3774 (RLD,LAI CO0021 23.00 0.010 37.00 10.00 18.00 45.00 75.00 1.100 160.0 250.0  0.55 0.180 30.00 20.00 10.00  70.0 0.153 0.120
