*MODEL INPUT FILE            B     1     1     1   999     0
*FILES              
MODEL          CSYCA048
FILEX          CCQU7901.CSX                                                                                 
FILEA          CCQU7901.CSA                                                                                 
FILET          CCQU7901.CST                                                                                 
SPECIES        CSYCA048.SPE C:\DSSAT48\GENOTYPE\                                                            
ECOTYPE        CSYCA048.ECO C:\DSSAT48\GENOTYPE\                                                            
CULTIVAR       CSYCA048.CUL C:\DSSAT48\GENOTYPE\                                                            
PESTS          CSYCA048.PST C:\DSSAT48\PEST\                                                                
SOILS          SOIL.SOL     C:\DSSAT48\SOIL\                                                                
WEATHERW       CCQU7901.WTH C:\DSSAT48\Weather\                                                             
OUTPUT         OVERVIEW
*SIMULATION CONTROL 
                   1     1     P 1979115  2150 WATER SUPPLY  2C*2E  (CO 
                   Y     N     N     N     N     N     N     Y     M
                   M     M     E     H     S     V     R     1     G     R     2     D     0
                   R     N     R     R     R
                   N     Y     Y     1     Y     N     Y     Y     N     N     Y     N     N
!AUTOMATIC MANAGEM  
                   -99     -99   40.  100.   30.   40.   10.
                 30.   50.  100. IB001 IBI01  10.0 1.000
                 30.   50.   25. IB001 IB001
                100.     1   20.
                     0     -99  100.    0.
*EXP.DETAILS        
  1CCQU7901 CS 1979 WATER SUPPLY * TWO CULTIVARS                           
*TREATMENTS         
  1 1 0 0 C1*E1 MCol-22;Control    
*CULTIVARS          
   CS UC0002 MCol-22         
*FIELDS             
   CCQU0001 CCQU7901   0.0    0.     1    0. 100.0    0F CLLO   260. CCQU000033-99.00 -99.0
      0.0000000000    0.0000000000     0.000               1.0  100.   1.0   0.0   -99   -99
*INITIAL CONDITIONS 
               0     0     0  1.00  1.00 -99.0     0  0.00  0.00  100.    0.
      5. 0.470   0.0   0.0
     15. 0.473   0.0   0.0
     28. 0.491   0.0   0.0
     36. 0.510   0.0   0.0
     44. 0.510   0.0   0.0
     54. 0.527   0.0   0.0
     65. 0.527   0.0   0.0
     80. 0.536   0.0   0.0
     96. 0.536   0.0   0.0
    122. 0.549   0.0   0.0
    150. 0.553   0.0   0.0
    178. 0.541   0.0   0.0
    196. 0.488   0.0   0.0
    230. 0.488   0.0   0.0
    260. 0.488   0.0   0.0
*PLANTING DETAILS   
   1979115     -99   1.0   1.0     V     R  100.   90.  20.0  450.  -99. -99.0   1.0  25.0
*IRRIGATION         
   1.000    0.    0.    0. GS000 IR001   0.0
*FERTILIZERS        
   1979115 FE001 AP001   20.  100.  260.  500.    0.    0.   -99
*RESIDUES           
*CHEMICALS          
*TILLAGE            
*ENVIRONMENT        
*HARVEST            
   1980056     6     H     A  100.    0.
*SOIL               
 CCQU000033  Connor      CLLO   260.   Clay                                            
 Quilichao   Colombia      3.000  76.510 Fine,Kaolinitic,Isohyperth. Oxic Dystropept       
 -99    0.09   6.8  0.60   76.  1.00  1.00 IB001 IB001 IB001 -99  
    5.       0.351 0.470 0.485 1.000  -99.  1.17 2.900 -99.0 -99.0 -99.0  -9.0  0.00-99.00-99.00-99.00
   15.       0.354 0.473 0.488 1.000  -99.  1.21 2.910 -99.0 -99.0 -99.0  -9.0  0.00-99.00-99.00-99.00
   28.       0.374 0.491 0.506 0.750  -99.  1.19 2.450 -99.0 -99.0 -99.0  -9.0  0.00-99.00-99.00-99.00
   36.       0.395 0.510 0.525 0.750  -99.  1.13 1.480 -99.0 -99.0 -99.0  -9.0  0.00-99.00-99.00-99.00
   44.       0.395 0.510 0.525 0.750  -99.  1.13 1.480 -99.0 -99.0 -99.0  -9.0  0.00-99.00-99.00-99.00
   54.       0.415 0.527 0.542 0.500  -99.  1.07 0.760 -99.0 -99.0 -99.0  -9.0  0.00-99.00-99.00-99.00
   65.       0.415 0.527 0.542 0.500  -99.  1.07 0.760 -99.0 -99.0 -99.0  -9.0  0.00-99.00-99.00-99.00
   80.       0.427 0.536 0.551 0.500  -99.  1.08 0.360 -99.0 -99.0 -99.0  -9.0  0.00-99.00-99.00-99.00
   96.       0.427 0.536 0.551 0.500  -99.  1.08 0.360 -99.0 -99.0 -99.0  -9.0  0.00-99.00-99.00-99.00
  122.       0.437 0.549 0.564 0.250  -99.  1.01 0.230 -99.0 -99.0 -99.0  -9.0  0.00-99.00-99.00-99.00
  150.       0.441 0.553 0.568 0.250  -99.  1.00 0.150 -99.0 -99.0 -99.0  -9.0  0.00-99.00-99.00-99.00
  178.       0.428 0.541 0.556 0.125  -99.  0.99 0.140 -99.0 -99.0 -99.0  -9.0  0.00-99.00-99.00-99.00
  196.       0.371 0.488 0.503 0.125  -99.  1.10 0.080 -99.0 -99.0 -99.0  -9.0  0.00-99.00-99.00-99.00
  230.       0.371 0.488 0.503 0.050  -99.  1.10 0.080 -99.0 -99.0 -99.0  -9.0  0.00-99.00-99.00-99.00
  260.       0.371 0.488 0.503 0.050  -99.  1.10 0.080 -99.0 -99.0 -99.0  -9.0  0.00-99.00-99.00-99.00
                    
    5.-99.00 -99.0 -99.0 -99.0 -99.0 -99.0 -99.0 -99.0 -99.0 -99.0-99.00 -99.0 -99.0 -99.0 -99.0 -99.0  -99.  -99.
   15.-99.00 -99.0 -99.0 -99.0 -99.0 -99.0 -99.0 -99.0 -99.0 -99.0-99.00 -99.0 -99.0 -99.0 -99.0 -99.0  -99.  -99.
   28.-99.00 -99.0 -99.0 -99.0 -99.0 -99.0 -99.0 -99.0 -99.0 -99.0-99.00 -99.0 -99.0 -99.0 -99.0 -99.0  -99.  -99.
   36.-99.00 -99.0 -99.0 -99.0 -99.0 -99.0 -99.0 -99.0 -99.0 -99.0-99.00 -99.0 -99.0 -99.0 -99.0 -99.0  -99.  -99.
   44.-99.00 -99.0 -99.0 -99.0 -99.0 -99.0 -99.0 -99.0 -99.0 -99.0-99.00 -99.0 -99.0 -99.0 -99.0 -99.0  -99.  -99.
   54.-99.00 -99.0 -99.0 -99.0 -99.0 -99.0 -99.0 -99.0 -99.0 -99.0-99.00 -99.0 -99.0 -99.0 -99.0 -99.0  -99.  -99.
   65.-99.00 -99.0 -99.0 -99.0 -99.0 -99.0 -99.0 -99.0 -99.0 -99.0-99.00 -99.0 -99.0 -99.0 -99.0 -99.0  -99.  -99.
   80.-99.00 -99.0 -99.0 -99.0 -99.0 -99.0 -99.0 -99.0 -99.0 -99.0-99.00 -99.0 -99.0 -99.0 -99.0 -99.0  -99.  -99.
   96.-99.00 -99.0 -99.0 -99.0 -99.0 -99.0 -99.0 -99.0 -99.0 -99.0-99.00 -99.0 -99.0 -99.0 -99.0 -99.0  -99.  -99.
  122.-99.00 -99.0 -99.0 -99.0 -99.0 -99.0 -99.0 -99.0 -99.0 -99.0-99.00 -99.0 -99.0 -99.0 -99.0 -99.0  -99.  -99.
  150.-99.00 -99.0 -99.0 -99.0 -99.0 -99.0 -99.0 -99.0 -99.0 -99.0-99.00 -99.0 -99.0 -99.0 -99.0 -99.0  -99.  -99.
  178.-99.00 -99.0 -99.0 -99.0 -99.0 -99.0 -99.0 -99.0 -99.0 -99.0-99.00 -99.0 -99.0 -99.0 -99.0 -99.0  -99.  -99.
  196.-99.00 -99.0 -99.0 -99.0 -99.0 -99.0 -99.0 -99.0 -99.0 -99.0-99.00 -99.0 -99.0 -99.0 -99.0 -99.0  -99.  -99.
  230.-99.00 -99.0 -99.0 -99.0 -99.0 -99.0 -99.0 -99.0 -99.0 -99.0-99.00 -99.0 -99.0 -99.0 -99.0 -99.0  -99.  -99.
  260.-99.00 -99.0 -99.0 -99.0 -99.0 -99.0 -99.0 -99.0 -99.0 -99.0-99.00 -99.0 -99.0 -99.0 -99.0 -99.0  -99.  -99.
                    
    5.-99.00-99.00-99.00-99.00
   15.-99.00-99.00-99.00-99.00
   28.-99.00-99.00-99.00-99.00
   36.-99.00-99.00-99.00-99.00
   44.-99.00-99.00-99.00-99.00
   54.-99.00-99.00-99.00-99.00
   65.-99.00-99.00-99.00-99.00
   80.-99.00-99.00-99.00-99.00
   96.-99.00-99.00-99.00-99.00
  122.-99.00-99.00-99.00-99.00
  150.-99.00-99.00-99.00-99.00
  178.-99.00-99.00-99.00-99.00
  196.-99.00-99.00-99.00-99.00
  230.-99.00-99.00-99.00-99.00
  260.-99.00-99.00-99.00-99.00
*CULTIVAR           
