*MODEL INPUT FILE            B     1     1     1   999     0
*FILES              
MODEL          CRGRO048
FILEX          SWIF0607.LTX                                                                                 
FILEA          SWIF0607.LTA                                                                                 
FILET          SWIF0607.LTT                                                                                 
SPECIES        LTGRO048.SPE C:\DSSAT48\GENOTYPE\                                                            
ECOTYPE        LTGRO048.ECO C:\DSSAT48\GENOTYPE\                                                            
CULTIVAR       LTGRO048.CUL C:\DSSAT48\GENOTYPE\                                                            
PESTS          LTGRO048.PST C:\DSSAT48\PEST\                                                                
SOILS          CA.SOL       C:\DSSAT48\SOIL\                                                                
WEATHERW       SWIF6752.WTH C:\DSSAT48\Weather\                                                             
OUTPUT         OVERVIEW
*SIMULATION CONTROL 
                   1     1     S 2006100  2150 2006 SIMULATION          
                   Y     Y     Y     N     N     N     N     N     M
                   M     M     E     R     S     L     R     1     P     R     3     D     0
                   R     R     R     N     M
                   N     Y     Y     1     Y     Y     Y     Y     N     N     Y     N     N
!AUTOMATIC MANAGEM  
                   -99     -99   40.  100.   30.   40.   10.
                 30.   50.  100. GS000 IR001  10.0 1.000
                 30.   50.   25. FE001 GS000
                100.     1   20.
                     0     -99  100.    0.
*EXP.DETAILS        
  1SWIF0607 LT RAINFED AND IRRIGATED LENTIL AT SWIFT CURRENT               
*TREATMENTS         
  1 0 0 0 rainfed   2006           
*CULTIVARS          
   LT CAND02 CDC Glamis      
*FIELDS             
   SWCO0001 SWIF6752   0.0    0.   -99    0. 100.0    0S SIL    150. CASC900061-99.00 -99.0
   -107.3000030518   50.2799987793    90.000               1.0  100.   1.0   0.0 FH101   -99
*INITIAL CONDITIONS 
   WH    2006001     0     0  1.00  1.00 -99.0     0  0.00  0.00  100.   15.
     20. 0.220  1.00  10.6
     40. 0.250  1.00  7.40
     60. 0.240 0.200  1.30
     80. 0.240 0.200  1.10
    100. 0.240 0.200  1.10
    180. 0.240 0.200  1.10
*PLANTING DETAILS   
   2006139     -99 170.0 170.0     S     R   40.  -99.   3.0  -99.  -99. -99.0 -99.0   0.0
*IRRIGATION         
   1.000    0.    0.    0. GS000 IR001   0.0
*FERTILIZERS        
*RESIDUES           
*CHEMICALS          
*TILLAGE            
*ENVIRONMENT        
*HARVEST            
*SOIL               
 CASC900061  OT OTH    A SIL    150.   OTH  O.DBC                                      
 OT OTH    A Canada       -0.009  -0.099 CH  OTH  O                                        
 -99    0.12   8.0  0.45   61.  1.00  1.00 IB001 IB001 IB001 -99  
   20.       0.090 0.260 0.497 1.000  2.53  1.22 1.740  23.0  49.0 -99.0  -9.0  7.00-99.00-99.00-99.00
   40.       0.090 0.260 0.480 1.000  2.23  1.30 1.610  23.0  50.0 -99.0  -9.0  7.00-99.00-99.00-99.00
   60.       0.090 0.260 0.424 0.472  1.39  1.40 1.540  27.0  41.0 -99.0  -9.0  7.00-99.00-99.00-99.00
   80.       0.095 0.270 0.405 0.350  1.15  1.58 1.510  32.0  28.0 -99.0  -9.0  7.00-99.00-99.00-99.00
  100.       0.095 0.270 0.398 0.192  1.08  1.76 1.350  32.0  28.0 -99.0  -9.0  7.00-99.00-99.00-99.00
  180.       0.095 0.270 0.398 0.192  1.08  1.76 1.350  32.0  28.0 -99.0  -9.0  7.00-99.00-99.00-99.00
                    
   20.-99.00 -99.0 -99.0 -99.0 -99.0 -99.0 -99.0 -99.0 -99.0 -99.0-99.00 -99.0 -99.0 -99.0 -99.0 -99.0  -99.  -99.
   40.-99.00 -99.0 -99.0 -99.0 -99.0 -99.0 -99.0 -99.0 -99.0 -99.0-99.00 -99.0 -99.0 -99.0 -99.0 -99.0  -99.  -99.
   60.-99.00 -99.0 -99.0 -99.0 -99.0 -99.0 -99.0 -99.0 -99.0 -99.0-99.00 -99.0 -99.0 -99.0 -99.0 -99.0  -99.  -99.
   80.-99.00 -99.0 -99.0 -99.0 -99.0 -99.0 -99.0 -99.0 -99.0 -99.0-99.00 -99.0 -99.0 -99.0 -99.0 -99.0  -99.  -99.
  100.-99.00 -99.0 -99.0 -99.0 -99.0 -99.0 -99.0 -99.0 -99.0 -99.0-99.00 -99.0 -99.0 -99.0 -99.0 -99.0  -99.  -99.
  180.-99.00 -99.0 -99.0 -99.0 -99.0 -99.0 -99.0 -99.0 -99.0 -99.0-99.00 -99.0 -99.0 -99.0 -99.0 -99.0  -99.  -99.
                    
   20.-99.00-99.00-99.00-99.00
   40.-99.00-99.00-99.00-99.00
   60.-99.00-99.00-99.00-99.00
   80.-99.00-99.00-99.00-99.00
  100.-99.00-99.00-99.00-99.00
  180.-99.00-99.00-99.00-99.00
*CULTIVAR           
CAND02 CDC Glamis       LAT001 15.40-0.110 28.00  5.00  8.00 22.50 16.00 0.860 240.0  70.0  1.00 0.065 20.00  2.00 14.00  67.0 0.286 0.020
