*MODEL INPUT FILE            B     1     1     1   999     0
*FILES              
MODEL          CRGRO048
FILEX          UFBR9201.TMX                                                                                 
FILEA          UFBR9201.TMA                                                                                 
FILET          UFBR9201.TMT                                                                                 
SPECIES        TMGRO048.SPE C:\DSSAT48\GENOTYPE\                                                            
ECOTYPE        TMGRO048.ECO C:\DSSAT48\GENOTYPE\                                                            
CULTIVAR       TMGRO048.CUL C:\DSSAT48\GENOTYPE\                                                            
PESTS          TMGRO048.PST C:\DSSAT48\PEST\                                                                
SOILS          SOIL.SOL     C:\DSSAT48\SOIL\                                                                
WEATHERW       UFBR9201.WTH C:\DSSAT48\Weather\                                                             
OUTPUT         OVERVIEW
*SIMULATION CONTROL 
                   1     1     S 1992064  2150 POTENTIAL YIELD          
                   N     N     N     N     N     N     N     N     M
                   M     M     E     R     S     L     R     1     G     R     2     D     0
                   R     A     R     N     M
                   N     Y     Y     1     Y     Y     Y     Y     N     N     Y     N     N
!AUTOMATIC MANAGEM  
                   -99     -99   40.  100.   30.   45.   40.
                 30.   70.  100. GS000 SI001  10.0 1.000
                200.   50.   25. SI001 SI001
                100.    60   20.
                   164     -99   75.    0.
*EXP.DETAILS        
  1UFBR9201 TM 1992 POTENTIAL YIELD, SUNNY, SUBIRRIGATED                   
*TREATMENTS         
  1 1 0 0 SUNNY subirrigated       
*CULTIVARS          
   TM TM0007 Sunny S-D 2010 C
*FIELDS             
   UFBR0001 UFBR9201   0.0    0. DR000    0. 100.0  0000 SA     180. UFBR950001-99.00 -99.0
      0.0000000000    0.0000000000     0.000               1.0  100.   1.0   0.0   -99   -99
*INITIAL CONDITIONS 
   PR    1992050     1     0  1.00  1.00 -99.0     0  0.00  0.00  100.   15.
      5. 0.133   0.0   0.0
     15. 0.133   0.0   0.0
     18. 0.133   0.0   0.0
     27. 0.111   0.0   0.0
     36. 0.111   0.0   0.0
     49. 0.111   0.0   0.0
     61. 0.111   0.0   0.0
     74. 0.111   0.0   0.0
     81. 0.248   0.0   0.0
    100. 0.159   0.0   0.0
    119. 0.159   0.0   0.0
    146. 0.252   0.0   0.0
    173. 0.252   0.0   0.0
    190. 0.260   0.0   0.0
    203. 0.283   0.0   0.0
*PLANTING DETAILS   
   1992064     -99   1.1   1.1     T     R  152.   90.   1.0    3.   25.  25.0   1.0   0.0
*IRRIGATION         
   0.750   30.   75.  -99. GS000 IR001   0.0
   1992044 IR001  10.0
   1992050 IR001  10.0
   1992055 IR001   1.0
   1992060 IR001  20.0
   1992064 IR001   1.0
   1992069 IR001  20.0
   1992074 IR001  20.0
   1992079 IR001  10.0
   1992084 IR001  25.0
   1992086 IR001  10.0
   1992089 IR001  25.0
   1992094 IR001   1.0
   1992099 IR001  10.0
   1992104 IR001  10.0
   1992109 IR001  10.0
   1992114 IR001  10.0
   1992119 IR001  30.0
   1992124 IR001  30.0
   1992129 IR001  30.0
   1992134 IR001  30.0
   1992139 IR001  30.0
   1992144 IR001  30.0
   1992149 IR001  30.0
   1992154 IR001  30.0
   1992159 IR001  30.0
   1992164 IR001  30.0
*FERTILIZERS        
*RESIDUES           
*CHEMICALS          
*TILLAGE            
*ENVIRONMENT        
*HARVEST            
     92164 GS000   -99   -99  100.    0.
*SOIL               
 UFBR950001  SCS         SA     180.   Eaugallie fine sand (IMPERVIOUS LAYER AT 120 CM)
 BRADENTON   U.S.A.       27.000  82.300 SANDY, SILICEOUS, HYPERTHERMIC, ALFIC, HAPLAQUOD  
 G      0.13  12.7  0.05   87.  1.00  0.97 IB001 IB001 IB001 -99  
    5.       0.022 0.133 0.423 1.000  18.4  1.22 1.020   0.8   1.1   0.0 0.090  6.00-99.00  3.90-99.00
   15.       0.022 0.133 0.423 1.000  18.4  1.22 1.020   0.8   1.1   0.0 0.090  6.00-99.00  3.90-99.00
   18.       0.022 0.133 0.423 1.000  18.4  1.22 1.020   0.8   1.1   0.0 0.090  6.00-99.00  3.90-99.00
   27.       0.022 0.111 0.430 0.300  15.8  1.51 0.700   0.6   2.9   0.0 0.060  5.00-99.00  2.60-99.00
   36.       0.022 0.111 0.430 0.300  15.8  1.51 0.700   0.6   2.9   0.0 0.060  5.00-99.00  2.60-99.00
   49.       0.022 0.111 0.430 0.010  21.1  1.62 0.140   0.6   1.9   0.0 0.010  4.80-99.00  0.20-99.00
   61.       0.022 0.111 0.430 0.010  21.1  1.62 0.140   0.6   1.9   0.0 0.010  4.80-99.00  0.20-99.00
   74.       0.022 0.111 0.430 0.010  21.1  1.62 0.140   0.6   1.9   0.0 0.010  4.80-99.00  0.20-99.00
   81.       0.035 0.248 0.396 0.000  22.4  1.60 1.200   3.7   4.8   0.0 0.100  4.50-99.00  8.10-99.00
  100.       0.013 0.159 0.374 0.000    0.  1.66 0.600   1.5   2.6   0.0 0.050  4.80-99.00  2.80-99.00
  119.       0.013 0.159 0.374 0.000    0.  1.66 0.600   1.5   2.6   0.0 0.050  4.80-99.00  2.80-99.00
  146.       0.028 0.252 0.374 0.000  7.10  1.66 0.530   2.4   2.9   0.0 0.040  4.90-99.00  4.10-99.00
  173.       0.028 0.252 0.374 0.000  7.10  1.66 0.530   2.4   2.9   0.0 0.040  4.90-99.00  4.10-99.00
  190.       0.070 0.260 0.324 0.000 0.500  1.79 0.210  13.0   3.0   0.0 0.020  4.80-99.00  5.70-99.00
  203.       0.134 0.283 0.294 0.000 0.100  1.87 0.140  21.8   2.1   0.0 0.010  4.20 99.00  6.70-99.00
                    
    5.-99.00 -99.0 -99.0 -99.0 -99.0 -99.0 -99.0 -99.0 -99.0 -99.0-99.00 -99.0 -99.0 -99.0 -99.0 -99.0  -99.  -99.
   15.-99.00 -99.0 -99.0 -99.0 -99.0 -99.0 -99.0 -99.0 -99.0 -99.0-99.00 -99.0 -99.0 -99.0 -99.0 -99.0  -99.  -99.
   18.-99.00 -99.0 -99.0 -99.0 -99.0 -99.0 -99.0 -99.0 -99.0 -99.0-99.00 -99.0 -99.0 -99.0 -99.0 -99.0  -99.  -99.
   27.-99.00 -99.0 -99.0 -99.0 -99.0 -99.0 -99.0 -99.0 -99.0 -99.0-99.00 -99.0 -99.0 -99.0 -99.0 -99.0  -99.  -99.
   36.-99.00 -99.0 -99.0 -99.0 -99.0 -99.0 -99.0 -99.0 -99.0 -99.0-99.00 -99.0 -99.0 -99.0 -99.0 -99.0  -99.  -99.
   49.-99.00 -99.0 -99.0 -99.0 -99.0 -99.0 -99.0 -99.0 -99.0 -99.0-99.00 -99.0 -99.0 -99.0 -99.0 -99.0  -99.  -99.
   61.-99.00 -99.0 -99.0 -99.0 -99.0 -99.0 -99.0 -99.0 -99.0 -99.0-99.00 -99.0 -99.0 -99.0 -99.0 -99.0  -99.  -99.
   74.-99.00 -99.0 -99.0 -99.0 -99.0 -99.0 -99.0 -99.0 -99.0 -99.0-99.00 -99.0 -99.0 -99.0 -99.0 -99.0  -99.  -99.
   81.-99.00 -99.0 -99.0 -99.0 -99.0 -99.0 -99.0 -99.0 -99.0 -99.0-99.00 -99.0 -99.0 -99.0 -99.0 -99.0  -99.  -99.
  100.-99.00 -99.0 -99.0 -99.0 -99.0 -99.0 -99.0 -99.0 -99.0 -99.0-99.00 -99.0 -99.0 -99.0 -99.0 -99.0  -99.  -99.
  119.-99.00 -99.0 -99.0 -99.0 -99.0 -99.0 -99.0 -99.0 -99.0 -99.0-99.00 -99.0 -99.0 -99.0 -99.0 -99.0  -99.  -99.
  146.-99.00 -99.0 -99.0 -99.0 -99.0 -99.0 -99.0 -99.0 -99.0 -99.0-99.00 -99.0 -99.0 -99.0 -99.0 -99.0  -99.  -99.
  173.-99.00 -99.0 -99.0 -99.0 -99.0 -99.0 -99.0 -99.0 -99.0 -99.0-99.00 -99.0 -99.0 -99.0 -99.0 -99.0  -99.  -99.
  190.-99.00 -99.0 -99.0 -99.0 -99.0 -99.0 -99.0 -99.0 -99.0 -99.0-99.00 -99.0 -99.0 -99.0 -99.0 -99.0  -99.  -99.
  203.-99.00 -99.0 -99.0 -99.0 -99.0 -99.0 -99.0 -99.0 -99.0 -99.0-99.00 -99.0 -99.0 -99.0 -99.0 -99.0  -99.  -99.
                    
    5.-99.00-99.00-99.00-99.00
   15.-99.00-99.00-99.00-99.00
   18.-99.00-99.00-99.00-99.00
   27.-99.00-99.00-99.00-99.00
   36.-99.00-99.00-99.00-99.00
   49.-99.00-99.00-99.00-99.00
   61.-99.00-99.00-99.00-99.00
   74.-99.00-99.00-99.00-99.00
   81.-99.00-99.00-99.00-99.00
  100.-99.00-99.00-99.00-99.00
  119.-99.00-99.00-99.00-99.00
  146.-99.00-99.00-99.00-99.00
  173.-99.00-99.00-99.00-99.00
  190.-99.00-99.00-99.00-99.00
  203.-99.00-99.00-99.00-99.00
*CULTIVAR           
TM0007 Sunny S-D 2010 C TM0001 12.33 0.000 24.40  3.00 19.00 45.20 52.00 1.360 300.0 300.0  0.73 0.004 26.00300.00 58.00   8.5 0.300 0.050
