*MODEL INPUT FILE            B     1     1     1   999     0
*FILES              
MODEL          CRGRO048
FILEX          UFGA7801.SBX                                                                                 
FILEA          UFGA7801.SBA                                                                                 
FILET          UFGA7801.SBT                                                                                 
SPECIES        SBGRO048.SPE C:\DSSAT48\GENOTYPE\                                                            
ECOTYPE        SBGRO048.ECO C:\DSSAT48\GENOTYPE\                                                            
CULTIVAR       SBGRO048.CUL C:\DSSAT48\GENOTYPE\                                                            
PESTS          SBGRO048.PST C:\DSSAT48\PEST\                                                                
SOILS          SOIL.SOL     C:\DSSAT48\SOIL\                                                                
WEATHERW       UFGA7801.WTH C:\DSSAT48\Weather\                                                             
OUTPUT         OVERVIEW
*SIMULATION CONTROL 
                   1     1     S 1978166  2150 BRAGG, IRRIGATED & NON-I 
                   Y     Y     Y     N     N     N     N     Y     M
                   M     M     E     R     S     L     R     1     G     R     2     D     0
                   R     R     R     R     M
                   N     Y     Y     1     Y     Y     Y     Y     N     N     Y     N     N
!AUTOMATIC MANAGEM  
                   -99     -99   40.  100.   30.   40.   10.
                 30.   70.  100. IB001 IB001  10.0 0.750
                 30.   50.   25. IB001 IB001
                100.     1   20.
                     0     -99  100.    0.
*EXP.DETAILS        
  1UFGA7801 SB BRAGG, IRRIGATED & NON-IRRIGATED                            
*TREATMENTS         
  1 1 1 0 78 IRRIG, light rate,freq
*CULTIVARS          
   SB IB0001 BRAGG           
*FIELDS             
   UFGA0001 UFGA7801   0.0    0. IB000    0. 100.0 00000 S      180. IBSB910015-99.00 -99.0
     29.6299991608  -82.3700027466    40.000               1.0  100.   1.0   0.0   -99   -99
*INITIAL CONDITIONS 
   SB    1978166   100     0  1.00  1.00 -99.0     0  0.00  0.00  100.    0.
      5. 0.086 0.600  1.50
     15. 0.086 0.600  1.50
     30. 0.086 0.600  1.50
     45. 0.086 0.600  1.50
     60. 0.086 0.600  1.50
     90. 0.076 0.600 0.600
    120. 0.076 0.600 0.500
    150. 0.130 0.600 0.500
    180. 0.258 0.600 0.500
*PLANTING DETAILS   
   1978166     -99  29.9  29.9     S     R   91.    0.   4.0  -99.  -99. -99.0 -99.0 -99.0
*IRRIGATION         
   0.750   30.   75.  -99. GS000 IR001   0.0
   1978167 IR001   8.0
   1978170 IR001   8.0
   1978181 IR001  13.0
   1978230 IR001  13.0
   1978235 IR001  13.0
   1978237 IR001  13.0
   1978240 IR001  11.0
   1978242 IR001  11.0
   1978244 IR001  11.0
   1978246 IR001  11.0
   1978250 IR001  11.0
   1978253 IR001  11.0
   1978256 IR001   8.0
   1978259 IR001   8.0
   1978262 IR001   8.0
   1978265 IR001   8.0
   1978269 IR001   7.0
   1978272 IR001   8.0
   1978279 IR001   7.0
   1978283 IR001   8.0
   1978294 IR001  10.0
*FERTILIZERS        
*RESIDUES           
   1978166 RE001  1000  0.80  0.00  0.00  100.   15.   -99
*CHEMICALS          
*TILLAGE            
*ENVIRONMENT        
*HARVEST            
*SOIL               
 IBSB910015  SCS         S      180.   Millhopper Fine Sand                            
 Gainesville USA          29.600 -82.370 Loamy,silic,hyperth Gross. Paleudults             
 -99    0.18   5.0  0.50   66.  1.00  0.92 IB001 IB001 IB001 -99  
    5.       0.023 0.086 0.230 1.000  7.40  1.36 0.900   0.9  11.8 -99.0  -9.0  5.30-99.00-99.00-99.00
   15.       0.023 0.086 0.230 1.000  7.40  1.40 0.690   0.9  11.8 -99.0  -9.0  5.40-99.00-99.00-99.00
   30.       0.023 0.086 0.230 0.498  15.8  1.46 0.280   4.6   6.4 -99.0  -9.0  5.70-99.00-99.00-99.00
   45.       0.023 0.086 0.230 0.294  28.0  1.46 0.200   5.8   5.4 -99.0  -9.0  5.80-99.00-99.00-99.00
   60.       0.023 0.086 0.230 0.294  28.0  1.47 0.200   5.8   5.4 -99.0  -9.0  5.80-99.00-99.00-99.00
   90.       0.021 0.076 0.230 0.380  27.6  1.43 0.090   9.6   4.2 -99.0  -9.0  5.90-99.00-99.00-99.00
  120.       0.020 0.076 0.230 0.133  17.5  1.48 0.030   9.6   4.2 -99.0  -9.0  5.90-99.00-99.00-99.00
  150.       0.027 0.130 0.230 0.062 0.300  1.57 0.030   8.3   3.6 -99.0  -9.0  5.90-99.00-99.00-99.00
  180.       0.070 0.258 0.360 0.031 0.100  1.79 0.030   8.3   3.6 -99.0  -9.0  5.90-99.00-99.00-99.00
                    
    5.-99.00 -99.0 -99.0 -99.0 -99.0 -99.0 -99.0 -99.0 -99.0 -99.0-99.00 -99.0 -99.0 -99.0 -99.0 -99.0  -99.  -99.
   15.-99.00 -99.0 -99.0 -99.0 -99.0 -99.0 -99.0 -99.0 -99.0 -99.0-99.00 -99.0 -99.0 -99.0 -99.0 -99.0  -99.  -99.
   30.-99.00 -99.0 -99.0 -99.0 -99.0 -99.0 -99.0 -99.0 -99.0 -99.0-99.00 -99.0 -99.0 -99.0 -99.0 -99.0  -99.  -99.
   45.-99.00 -99.0 -99.0 -99.0 -99.0 -99.0 -99.0 -99.0 -99.0 -99.0-99.00 -99.0 -99.0 -99.0 -99.0 -99.0  -99.  -99.
   60.-99.00 -99.0 -99.0 -99.0 -99.0 -99.0 -99.0 -99.0 -99.0 -99.0-99.00 -99.0 -99.0 -99.0 -99.0 -99.0  -99.  -99.
   90.-99.00 -99.0 -99.0 -99.0 -99.0 -99.0 -99.0 -99.0 -99.0 -99.0-99.00 -99.0 -99.0 -99.0 -99.0 -99.0  -99.  -99.
  120.-99.00 -99.0 -99.0 -99.0 -99.0 -99.0 -99.0 -99.0 -99.0 -99.0-99.00 -99.0 -99.0 -99.0 -99.0 -99.0  -99.  -99.
  150.-99.00 -99.0 -99.0 -99.0 -99.0 -99.0 -99.0 -99.0 -99.0 -99.0-99.00 -99.0 -99.0 -99.0 -99.0 -99.0  -99.  -99.
  180.-99.00 -99.0 -99.0 -99.0 -99.0 -99.0 -99.0 -99.0 -99.0 -99.0-99.00 -99.0 -99.0 -99.0 -99.0 -99.0  -99.  -99.
                    
    5.-99.00-99.00-99.00-99.00
   15.-99.00-99.00-99.00-99.00
   30.-99.00-99.00-99.00-99.00
   45.-99.00-99.00-99.00-99.00
   60.-99.00-99.00-99.00-99.00
   90.-99.00-99.00-99.00-99.00
  120.-99.00-99.00-99.00-99.00
  150.-99.00-99.00-99.00-99.00
  180.-99.00-99.00-99.00-99.00
*CULTIVAR           
IB0001 BRAGG            SB0701 12.33 0.320 19.50 10.00 15.20 37.60 19.00 1.000 355.0 170.0  1.00 0.170 24.00  2.00 10.00  78.0 0.400 0.200
