*MODEL INPUT FILE            B     1     1     1   999     0
*FILES              
MODEL          CRGRO048
FILEX          UFGA7902.SBX                                                                                 
FILEA          UFGA7902.SBA                                                                                 
FILET          UFGA7902.SBT                                                                                 
SPECIES        SBGRO048.SPE C:\DSSAT48\GENOTYPE\                                                            
ECOTYPE        SBGRO048.ECO C:\DSSAT48\GENOTYPE\                                                            
CULTIVAR       SBGRO048.CUL C:\DSSAT48\GENOTYPE\                                                            
PESTS          SBGRO048.PST C:\DSSAT48\PEST\                                                                
SOILS          SOIL.SOL     C:\DSSAT48\SOIL\                                                                
WEATHERW       UFGA7901.WTH C:\DSSAT48\Weather\                                                             
OUTPUT         OVERVIEW
*SIMULATION CONTROL 
                   1     1     S 1979074  2150 Williams, Irrigation trt 
                   Y     Y     Y     N     N     N     N     Y     M
                   M     M     E     R     S     L     R     1     G     R     2     D     0
                   R     R     R     R     M
                   N     Y     Y     1     Y     Y     Y     Y     N     N     Y     N     N
!AUTOMATIC MANAGEM  
                   -99     -99   40.  100.   30.   40.   10.
                 30.   70.  100. IB001 IBI01  10.0 0.750
                 30.   50.   25. IB001 IB001
                100.     1   20.
                     0     -99  100.    0.
*EXP.DETAILS        
  1UFGA7902 SB IRRIGATION - WILLIAMS                                       
*TREATMENTS         
  1 1 0 0 79, Wms, Rainfed         
*CULTIVARS          
   SB IB0010 WILLIAMS-82 (3) 
*FIELDS             
   UFGA0001 UFGA7901   0.0    0. IB000    0. 100.0 00000 S        0. IBSB910015-99.00 -99.0
    -99.0000000000  -99.0000000000   -99.000               1.0  100.   1.0 -99.0   -99   -99
*INITIAL CONDITIONS 
   SB    1979074   100     0  1.00  1.00 -99.0     0  0.00  0.00  100.    0.
      5. 0.086 0.600  1.50
     15. 0.086 0.600  1.50
     30. 0.086 0.600  1.50
     45. 0.086 0.600  1.50
     60. 0.086 0.600  1.50
     90. 0.076 0.600 0.600
    120. 0.076 0.600 0.500
    150. 0.130 0.600 0.500
    180. 0.258 0.600 0.500
*PLANTING DETAILS   
   1979074     -99  62.0  62.0     S     R   35.    0.   2.6  -99.  -99. -99.0 -99.0 -99.0
*IRRIGATION         
   1.000    0.    0.    0. GS000 IR001   0.0
*FERTILIZERS        
*RESIDUES           
   1979074 IB001  1000  0.80  0.00  0.00  100.   15.   -99
*CHEMICALS          
*TILLAGE            
*ENVIRONMENT        
*HARVEST            
*SOIL               
 IBSB910015  SCS         S        0.   Millhopper Fine Sand                            
 Gainesville USA          29.600 -82.370 Loamy,silic,hyperth Gross. Paleudults             
 -99    0.18   5.0  0.50   66.  1.00  0.92 IB001 IB001 IB001 -99  
    5.       0.023 0.086 0.230 1.000  7.40  1.36 0.900   0.9  11.8 -99.0  -9.0  5.30-99.00-99.00-99.00
   15.       0.023 0.086 0.230 1.000  7.40  1.40 0.690   0.9  11.8 -99.0  -9.0  5.40-99.00-99.00-99.00
   30.       0.023 0.086 0.230 0.498  15.8  1.46 0.280   4.6   6.4 -99.0  -9.0  5.70-99.00-99.00-99.00
   45.       0.023 0.086 0.230 0.294  28.0  1.46 0.200   5.8   5.4 -99.0  -9.0  5.80-99.00-99.00-99.00
   60.       0.023 0.086 0.230 0.294  28.0  1.47 0.200   5.8   5.4 -99.0  -9.0  5.80-99.00-99.00-99.00
   90.       0.021 0.076 0.230 0.380  27.6  1.43 0.090   9.6   4.2 -99.0  -9.0  5.90-99.00-99.00-99.00
  120.       0.020 0.076 0.230 0.133  17.5  1.48 0.030   9.6   4.2 -99.0  -9.0  5.90-99.00-99.00-99.00
  150.       0.027 0.130 0.230 0.062 0.300  1.57 0.030   8.3   3.6 -99.0  -9.0  5.90-99.00-99.00-99.00
  180.       0.070 0.258 0.360 0.031 0.100  1.79 0.030   8.3   3.6 -99.0  -9.0  5.90-99.00-99.00-99.00
                    
    5.-99.00 -99.0 -99.0 -99.0 -99.0 -99.0 -99.0 -99.0 -99.0 -99.0-99.00 -99.0 -99.0 -99.0 -99.0 -99.0  -99.  -99.
   15.-99.00 -99.0 -99.0 -99.0 -99.0 -99.0 -99.0 -99.0 -99.0 -99.0-99.00 -99.0 -99.0 -99.0 -99.0 -99.0  -99.  -99.
   30.-99.00 -99.0 -99.0 -99.0 -99.0 -99.0 -99.0 -99.0 -99.0 -99.0-99.00 -99.0 -99.0 -99.0 -99.0 -99.0  -99.  -99.
   45.-99.00 -99.0 -99.0 -99.0 -99.0 -99.0 -99.0 -99.0 -99.0 -99.0-99.00 -99.0 -99.0 -99.0 -99.0 -99.0  -99.  -99.
   60.-99.00 -99.0 -99.0 -99.0 -99.0 -99.0 -99.0 -99.0 -99.0 -99.0-99.00 -99.0 -99.0 -99.0 -99.0 -99.0  -99.  -99.
   90.-99.00 -99.0 -99.0 -99.0 -99.0 -99.0 -99.0 -99.0 -99.0 -99.0-99.00 -99.0 -99.0 -99.0 -99.0 -99.0  -99.  -99.
  120.-99.00 -99.0 -99.0 -99.0 -99.0 -99.0 -99.0 -99.0 -99.0 -99.0-99.00 -99.0 -99.0 -99.0 -99.0 -99.0  -99.  -99.
  150.-99.00 -99.0 -99.0 -99.0 -99.0 -99.0 -99.0 -99.0 -99.0 -99.0-99.00 -99.0 -99.0 -99.0 -99.0 -99.0  -99.  -99.
  180.-99.00 -99.0 -99.0 -99.0 -99.0 -99.0 -99.0 -99.0 -99.0 -99.0-99.00 -99.0 -99.0 -99.0 -99.0 -99.0  -99.  -99.
                    
    5.-99.00-99.00-99.00-99.00
   15.-99.00-99.00-99.00-99.00
   30.-99.00-99.00-99.00-99.00
   45.-99.00-99.00-99.00-99.00
   60.-99.00-99.00-99.00-99.00
   90.-99.00-99.00-99.00-99.00
  120.-99.00-99.00-99.00-99.00
  150.-99.00-99.00-99.00-99.00
  180.-99.00-99.00-99.00-99.00
*CULTIVAR           
IB0010 WILLIAMS-82 (3)  SB0301 13.40 0.285 19.00  8.30 14.20 32.20 28.00 0.970 385.0 180.0  1.00 0.180 26.00  2.40 12.00  77.0 0.405 0.205
