*MODEL INPUT FILE            B     1     1     1   999     0
*FILES              
MODEL          RICER048
FILEX          PULU0001.RIX                                                                                 
FILEA          PULU0001.RIA                                                                                 
FILET          PULU0001.RIT                                                                                 
SPECIES        RICER048.SPE C:\DSSAT48\GENOTYPE\                                                            
ECOTYPE        RICER048.ECO C:\DSSAT48\GENOTYPE\                                                            
CULTIVAR       RICER048.CUL C:\DSSAT48\GENOTYPE\                                                            
PESTS          RICER048.PST C:\DSSAT48\PEST\                                                                
SOILS          PU.SOL       C:\DSSAT48\SOIL\                                                                
WEATHERW       PULU0001.WTH C:\DSSAT48\Weather\                                                             
OUTPUT         OVERVIEW
*SIMULATION CONTROL 
                   1     1     S 2000150  2150 DEFAULT SIMULATION CONTR 
                   Y     Y     N     N     N     N     N     N     M
                   M     M     E     R     S     C     R     1     G     R     2     D     0
                   R     R     R     R     M
                   N     Y     Y     1     Y     N     Y     Y     N     N     Y     N     N
!AUTOMATIC MANAGEM  
                   -99     -99   40.  100.   30.   40.   10.
                 30.   50.  100. GS000 IR001  10.0 1.000
                 30.   50.   25. FE001 GS000
                100.     1   20.
                     0     -99  100.    0.
*EXP.DETAILS        
  1PULU0001 RI PAU, LUDHIANA, WATER BALANCE STUDIES, 2000                  
*TREATMENTS         
  1 1 0 0 P2 I1                    
*CULTIVARS          
   RI IB0050 PR114           
*FIELDS             
   PULU0001 PULU0001   0.0    0. DR000    0. 100.0 00000 SL     150. PULU010001-99.00 -99.0
      0.0000000000    0.0000000000     0.000               1.0  100.   1.0   0.0   -99   -99
*INITIAL CONDITIONS 
   WH    2000150   500     0  1.00  1.00 -99.0     0  0.00  0.00  100.   15.
      5. 0.250  5.20  4.60
     15. 0.250  5.20  4.60
     30. 0.270  4.20  4.20
     45. 0.250  4.50  3.90
     60. 0.240  3.20  3.50
     75. 0.240  2.50  2.40
     90. 0.250  1.50  1.30
    105. 0.250 0.500 0.500
    120. 0.250 0.500 0.500
    150. 0.220 0.500 0.500
*PLANTING DETAILS   
   2000162     -99  33.0  33.0     T     H   20.    0.   3.0  -99.   35.  30.0   1.0   0.0
*IRRIGATION         
   1.000   30.   75.  -99. GS000 IR001   0.0
   2000162 IR010   1.0
   2000162 IR008  20.0
   2000162 IR009 150.0
   2000162 IR006  65.0
   2000165 IR006  65.0
   2000168 IR006  65.0
   2000169 IR006  65.0
   2000170 IR006  65.0
   2000171 IR006  65.0
   2000172 IR006  65.0
   2000173 IR006  65.0
   2000174 IR006  65.0
   2000175 IR006  65.0
   2000176 IR006  65.0
   2000177 IR006  65.0
   2000178 IR006  65.0
   2000179 IR006  65.0
   2000180 IR006  65.0
   2000181 IR006  65.0
   2000182 IR006  65.0
   2000183 IR006  65.0
   2000184 IR006  65.0
   2000185 IR006  65.0
   2000188 IR006  65.0
   2000189 IR006  65.0
   2000190 IR006  65.0
   2000200 IR006  65.0
   2000201 IR006  65.0
   2000202 IR006  65.0
   2000203 IR006  65.0
   2000204 IR006  65.0
   2000205 IR006  65.0
   2000206 IR006  65.0
   2000207 IR006  65.0
   2000208 IR006  65.0
   2000209 IR006  65.0
   2000210 IR006  65.0
   2000211 IR006  65.0
   2000212 IR006  65.0
   2000213 IR006  65.0
   2000214 IR006  65.0
   2000215 IR006  65.0
   2000216 IR006  65.0
   2000217 IR006  65.0
   2000218 IR006  65.0
   2000219 IR006  65.0
   2000220 IR006  65.0
   2000227 IR006  65.0
   2000230 IR006  65.0
   2000234 IR006  65.0
   2000237 IR006  65.0
   2000250 IR006  65.0
   2000258 IR006  65.0
   2000263 IR006  65.0
   2000268 IR006  65.0
*FERTILIZERS        
   2000164 FE005 AP001    0.   40.  -99.  -99.  -99.  -99.   -99
   2000185 FE005 AP001    0.   40.  -99.  -99.  -99.  -99.   -99
   2000207 FE005 AP001    0.   40.  -99.  -99.  -99.  -99.   -99
*RESIDUES           
   2000160 RE001   300  0.50  0.00  0.00  100.   15.   -99
*CHEMICALS          
*TILLAGE            
*ENVIRONMENT        
*HARVEST            
*SOIL               
 PULU010001  SOILSPAU    SL     150. Silty loam                                        
 LUDHIANA    INDIA        30.900  75.800 Typic Ustochrept                                  
 -99    0.15  10.0  0.60   60.  1.00  0.90 SA001 SA001 SA006 -99  
    5.       0.060 0.250 0.350 1.000  -99.  1.60 0.390  10.0  20.0   0.0  -9.0  8.00-99.00 10.30-99.00
   15.       0.060 0.250 0.350 1.000  -99.  1.60 0.390  10.0  20.0   0.0  -9.0  8.00-99.00 10.30-99.00
   30.       0.080 0.270 0.360 0.900  -99.  1.55 0.140  12.0  23.0   0.0  -9.0  8.10-99.00  9.80-99.00
   45.       0.100 0.300 0.380 0.750  -99.  1.50 0.210  18.0  22.0   0.0  -9.0  8.10-99.00  8.40-99.00
   60.       0.100 0.300 0.380 0.500  -99.  1.50 0.130  18.0  22.0   0.0  -9.0  8.20-99.00  7.70-99.00
   75.       0.100 0.300 0.380 0.250  -99.  1.50 0.110  18.0  22.0   0.0  -9.0  8.20-99.00  7.20-99.00
   90.       0.100 0.300 0.380 0.000  -99.  1.50 0.100  18.0  22.0   0.0  -9.0  8.00-99.00  5.10-99.00
  105.       0.100 0.300 0.380 0.000  -99.  1.50 0.100  19.0  23.0   0.0  -9.0  8.00-99.00-99.00-99.00
  120.       0.100 0.300 0.380 0.000  -99.  1.50 0.100  18.0  23.0   0.0  -9.0  8.00-99.00-99.00-99.00
  150.       0.100 0.300 0.380 0.000  -99.  1.50 0.100  18.0  23.0   0.0  -9.0  8.00-99.00-99.00-99.00
                    
    5.-99.00 -99.0 -99.0 -99.0 -99.0 -99.0 -99.0 -99.0 -99.0 -99.0-99.00 -99.0 -99.0 -99.0 -99.0 -99.0  -99.  -99.
   15.-99.00 -99.0 -99.0 -99.0 -99.0 -99.0 -99.0 -99.0 -99.0 -99.0-99.00 -99.0 -99.0 -99.0 -99.0 -99.0  -99.  -99.
   30.-99.00 -99.0 -99.0 -99.0 -99.0 -99.0 -99.0 -99.0 -99.0 -99.0-99.00 -99.0 -99.0 -99.0 -99.0 -99.0  -99.  -99.
   45.-99.00 -99.0 -99.0 -99.0 -99.0 -99.0 -99.0 -99.0 -99.0 -99.0-99.00 -99.0 -99.0 -99.0 -99.0 -99.0  -99.  -99.
   60.-99.00 -99.0 -99.0 -99.0 -99.0 -99.0 -99.0 -99.0 -99.0 -99.0-99.00 -99.0 -99.0 -99.0 -99.0 -99.0  -99.  -99.
   75.-99.00 -99.0 -99.0 -99.0 -99.0 -99.0 -99.0 -99.0 -99.0 -99.0-99.00 -99.0 -99.0 -99.0 -99.0 -99.0  -99.  -99.
   90.-99.00 -99.0 -99.0 -99.0 -99.0 -99.0 -99.0 -99.0 -99.0 -99.0-99.00 -99.0 -99.0 -99.0 -99.0 -99.0  -99.  -99.
  105.-99.00 -99.0 -99.0 -99.0 -99.0 -99.0 -99.0 -99.0 -99.0 -99.0-99.00 -99.0 -99.0 -99.0 -99.0 -99.0  -99.  -99.
  120.-99.00 -99.0 -99.0 -99.0 -99.0 -99.0 -99.0 -99.0 -99.0 -99.0-99.00 -99.0 -99.0 -99.0 -99.0 -99.0  -99.  -99.
  150.-99.00 -99.0 -99.0 -99.0 -99.0 -99.0 -99.0 -99.0 -99.0 -99.0-99.00 -99.0 -99.0 -99.0 -99.0 -99.0  -99.  -99.
                    
    5.-99.00-99.00-99.00-99.00
   15.-99.00-99.00-99.00-99.00
   30.-99.00-99.00-99.00-99.00
   45.-99.00-99.00-99.00-99.00
   60.-99.00-99.00-99.00-99.00
   75.-99.00-99.00-99.00-99.00
   90.-99.00-99.00-99.00-99.00
  105.-99.00-99.00-99.00-99.00
  120.-99.00-99.00-99.00-99.00
  150.-99.00-99.00-99.00-99.00
*CULTIVAR           
IB0050 PR114            IB0001 662.5 184.4 503.0  12.4  62.9 0.023  1.00 83.00  25.7  15.0  15.0
