*MODEL INPUT FILE            B     1     1     1   999     0
*FILES              
MODEL          PRFRM048
FILEX          UFMA1401.BHX                                                                                 
FILEA          UFMA1401.BHA                                                                                 
FILET          UFMA1401.BHT                                                                                 
SPECIES        BHFRM048.SPE C:\DSSAT48\GENOTYPE\                                                            
ECOTYPE        BHFRM048.ECO C:\DSSAT48\GENOTYPE\                                                            
CULTIVAR       BHFRM048.CUL C:\DSSAT48\GENOTYPE\                                                            
PESTS          BHFRM048.PST C:\DSSAT48\PEST\                                                                
SOILS          UF.SOL       C:\DSSAT48\SOIL\                                                                
WEATHERW       UFMA1401.WTH C:\DSSAT48\Weather\                                                             
OUTPUT         OVERVIEW
*SIMULATION CONTROL 
                   1     1     S 2014001  2150 BAHIA                    
                   Y     Y     N     N     N     N     N     N     M
                   M     M     E     R     S     L     R     1     P     R     2     D     0
                   R     N     R     N     R
                   N     Y     Y     1     Y     Y     Y     Y     N     N     Y     N     N
!AUTOMATIC MANAGEM  
                   -99     -99    0.    0.    0.    0.    0.
                  0.    0.    0. GS000 IR001   0.0 0.000
                  0.    0.    0. FE001 GS000
                  0.     0    0.
                     0     -99    0.    0.
*EXP.DETAILS        
  1UFMA1401 BH MARIANNA - NOT FERTILIZED                                   
*TREATMENTS         
  1 1 1 0 Unfertilized             
*CULTIVARS          
   BH UF0001 Pensacola       
*FIELDS             
   UFMA1401 UFMA1401   0.0  -99.   -99  -99. 100.0   -99 LS     -99. UFMA140001-99.00 -99.0
    -99.0000000000  -99.0000000000   -99.000               1.0  100.   1.0 -99.0   -99   -99
*INITIAL CONDITIONS 
   BH    2014001     0     0  1.00  1.00 -99.0     0  0.00  0.00  100.    0.
      5. 0.117   0.0 0.100
     15. 0.117   0.0 0.100
     18. 0.117   0.0 0.100
     30. 0.133   0.0 0.100
     57. 0.206   0.0 0.100
     83. 0.206   0.0 0.100
    110. 0.206   0.0 0.100
    137. 0.206   0.0 0.100
    203. 0.236   0.0 0.100
*PLANTING DETAILS   
   2014091     -99 999.0 999.0     T     R    2.    0.   2.0 9999.   90.  15.0   1.0   0.0
*IRRIGATION         
   1.000    0.    0.    0. GS000 IR001   0.0
*FERTILIZERS        
   2015001 FE001 AP001    0.   20.  -99.  -99.  -99.  -99.   -99
   2016001 FE001 AP001    0.   20.  -99.  -99.  -99.  -99.   -99
*RESIDUES           
*CHEMICALS          
*TILLAGE            
*ENVIRONMENT        
*HARVEST            
   2016336 GS000     C   -99  100.  100.
*SOIL               
 UFMA140001  SCS         LS     -99. Orangeburg Sandy Loam !added 0.01 to DUL, set SLPF
 arianna     USA          30.000  -0.099 Loamy,silic,hyperth Gross. Paleud(17)             
 -99    0.13   9.0  0.60   76.  1.00  0.82 IB001 IB001 IB001 -99  
    5.       0.076 0.168 0.391 1.000  6.11  1.55 0.800   9.4  11.6   0.0  -9.0  7.00-99.00  2.90-99.00
   15.       0.076 0.168 0.391 1.000  6.11  1.55 0.800   9.4  11.6   0.0  -9.0  7.00-99.00  2.90-99.00
   18.       0.076 0.168 0.391 1.000  6.11  1.55 0.800   9.4  11.6   0.0  -9.0  7.00-99.00  2.90-99.00
   30.       0.091 0.186 0.384 1.000  2.59  1.57 0.200  12.4   9.8   0.0  -9.0  7.00-99.00-99.00-99.00
   57.       0.160 0.263 0.391 0.517 0.430  1.55 0.070  22.2  22.3   0.0  -9.0  7.00-99.00-99.00-99.00
   83.       0.160 0.263 0.391 0.517 0.430  1.55 0.070  22.2  22.3   0.0  -9.0  7.00-99.00-99.00-99.00
  110.       0.160 0.263 0.391 0.517 0.430  1.55 0.070  22.2  22.3   0.0  -9.0  7.00-99.00-99.00-99.00
  137.       0.160 0.263 0.391 0.517 0.430  1.55 0.070  22.2  22.3   0.0  -9.0  7.00-99.00-99.00-99.00
  203.       0.185 0.296 0.395 0.262 0.430  1.54 0.190  31.9  12.6   0.0  -9.0  7.00-99.00-99.00-99.00
                    
    5.-99.00 -99.0 -99.0 -99.0 -99.0 -99.0 -99.0 -99.0 -99.0 -99.0-99.00 -99.0 -99.0 -99.0 -99.0 -99.0 0.320  -99.
   15.-99.00 -99.0 -99.0 -99.0 -99.0 -99.0 -99.0 -99.0 -99.0 -99.0-99.00 -99.0 -99.0 -99.0 -99.0 -99.0 0.320  -99.
   18.-99.00 -99.0 -99.0 -99.0 -99.0 -99.0 -99.0 -99.0 -99.0 -99.0-99.00 -99.0 -99.0 -99.0 -99.0 -99.0 0.320  -99.
   30.-99.00 -99.0 -99.0 -99.0 -99.0 -99.0 -99.0 -99.0 -99.0 -99.0-99.00 -99.0 -99.0 -99.0 -99.0 -99.0 0.170  -99.
   57.-99.00 -99.0 -99.0 -99.0 -99.0 -99.0 -99.0 -99.0 -99.0 -99.0-99.00 -99.0 -99.0 -99.0 -99.0 -99.0 0.060  -99.
   83.-99.00 -99.0 -99.0 -99.0 -99.0 -99.0 -99.0 -99.0 -99.0 -99.0-99.00 -99.0 -99.0 -99.0 -99.0 -99.0 0.060  -99.
  110.-99.00 -99.0 -99.0 -99.0 -99.0 -99.0 -99.0 -99.0 -99.0 -99.0-99.00 -99.0 -99.0 -99.0 -99.0 -99.0 0.060  -99.
  137.-99.00 -99.0 -99.0 -99.0 -99.0 -99.0 -99.0 -99.0 -99.0 -99.0-99.00 -99.0 -99.0 -99.0 -99.0 -99.0 0.060  -99.
  203.-99.00 -99.0 -99.0 -99.0 -99.0 -99.0 -99.0 -99.0 -99.0 -99.0-99.00 -99.0 -99.0 -99.0 -99.0 -99.0 0.160  -99.
                    
    5.-99.00-99.00-99.00-99.00
   15.-99.00-99.00-99.00-99.00
   18.-99.00-99.00-99.00-99.00
   30.-99.00-99.00-99.00-99.00
   57.-99.00-99.00-99.00-99.00
   83.-99.00-99.00-99.00-99.00
  110.-99.00-99.00-99.00-99.00
  137.-99.00-99.00-99.00-99.00
  203.-99.00-99.00-99.00-99.00
*CULTIVAR           
UF0001 Pensacola        G00001 12.50 0.200 99.00 10.00 18.00 33.00 25.00 1.800 180.0   2.0  0.01 0.020 15.00  2.05 20.00  78.0 0.115 0.035
