*MODEL INPUT FILE            B     1     1     4   999     0
*FILES              
MODEL          CRGRO048
FILEX          UFGA0602.TMX                                                                                 
FILEA          UFGA0602.TMA                                                                                 
FILET          UFGA0602.TMT                                                                                 
SPECIES        TMGRO048.SPE C:\DSSAT48\GENOTYPE\                                                            
ECOTYPE        TMGRO048.ECO C:\DSSAT48\GENOTYPE\                                                            
CULTIVAR       TMGRO048.CUL C:\DSSAT48\GENOTYPE\                                                            
PESTS          TMGRO048.PST C:\DSSAT48\PEST\                                                                
SOILS          SOIL.SOL     C:\DSSAT48\SOIL\                                                                
WEATHERW       UFGA0601.WTH C:\DSSAT48\Weather\                                                             
OUTPUT         OVERVIEW
*SIMULATION CONTROL 
                   1     1     S 2006089  2150 Water stress, WB ON      
                   Y     N     N     N     N     N     N     N     M
                   M     M     E     R     S     L     R     1     G     R     2     D     0
                   R     R     A     N     R
                   N     Y     Y     1     Y     N     Y     Y     N     N     Y     N     N
!AUTOMATIC MANAGEM  
                   -99     -99   40.  100.   30.   45.   40.
                 30.   80.  100. GS000 SI005   5.0 1.000
                200.   50.   25. SI001 SI001
                100.    60   20.
                   169     -99   75.    0.
*EXP.DETAILS        
  1UFGA0602 TM SPRING 2006,FLA 47,DRIP-IRR.                                
*TREATMENTS         
  4 1 1 1 06-Ctrl WB "on"          
*CULTIVARS          
   TM TM0001 Florida 47 2010 
*FIELDS             
   UFIM0001 UFGA0601   0.0    0. DR000    0. 100.0 00000 SA     201. UFGA010700-99.00 -99.0
    -99.0000000000  -99.0000000000   -99.000               1.0  100.   1.0 -99.0   -99   -99
*INITIAL CONDITIONS 
   FA    2006050     1     0  1.00  1.00 -99.0   -99 -9.00 -9.00  -99.  -99.
      5. 0.092 0.200  1.00
     15. 0.075 0.200  1.00
     30. 0.059 0.200  1.00
     45. 0.058 0.140 0.700
     60. 0.057 0.100 0.500
     90. 0.087 0.100 0.353
    120. 0.169 0.030 0.030
    150. 0.400   0.0   0.0
    180. 0.400   0.0   0.0
*PLANTING DETAILS   
   2006095 2006095   1.2   1.2     T     R  183.   90.   1.0    3.   28.  25.0   1.0 -99.0
*IRRIGATION         
   1.000   20.   80.   95. GS000 IR001   0.0
   2006093 IR005   2.9
   2006094 IR005   2.9
   2006095 IR005  12.0
   2006096 IR005   2.9
   2006097 IR005   2.9
   2006098 IR005  10.0
   2006099 IR005   2.9
   2006100 IR005   2.9
   2006101 IR005   2.9
   2006102 IR005   2.9
   2006103 IR005   2.9
   2006104 IR005   2.9
   2006105 IR005   2.9
   2006106 IR005   2.9
   2006107 IR005   2.9
   2006108 IR005   2.9
   2006109 IR005   2.9
   2006110 IR005   2.9
   2006111 IR005   2.9
   2006112 IR005   2.9
   2006113 IR005   2.9
   2006114 IR005   5.4
   2006115 IR005  14.0
   2006116 IR005  10.0
   2006117 IR005  17.0
   2006118 IR005   5.4
   2006119 IR005  16.0
   2006120 IR005   9.4
   2006121 IR005   7.5
   2006122 IR005  16.0
   2006123 IR005   7.5
   2006124 IR005   5.4
   2006125 IR005   5.4
   2006126 IR005   7.4
   2006127 IR005   7.4
   2006128 IR005   5.5
   2006129 IR005   5.5
   2006130 IR005   5.5
   2006131 IR005   5.5
   2006132 IR005   5.5
   2006133 IR005   5.5
   2006134 IR005   5.0
   2006135 IR005   5.0
   2006136 IR005   5.0
   2006137 IR005   5.0
   2006138 IR005   5.0
   2006139 IR005   5.0
   2006140 IR005   5.0
   2006141 IR005   5.0
   2006142 IR005   5.0
   2006143 IR005   5.0
   2006144 IR005   5.0
   2006145 IR005   5.0
   2006146 IR005   5.0
   2006147 IR005   5.0
   2006148 IR005   5.0
   2006149 IR005   5.0
   2006150 IR005   5.0
   2006151 IR005   5.0
   2006152 IR005   5.0
   2006152 IR005   5.0
   2006153 IR005   5.0
   2006154 IR005   5.3
   2006155 IR005   5.3
   2006156 IR005   5.3
   2006157 IR005   5.3
   2006158 IR005   5.3
   2006159 IR005   5.3
   2006160 IR005   5.3
   2006161 IR005   5.3
   2006162 IR005   5.3
   2006163 IR005   5.3
   2006164 IR005   5.3
   2006165 IR005   5.3
   2006166 IR005   5.3
   2006167 IR005   5.3
   2006168 IR005   5.3
   2006169 IR005   5.3
   2006170 IR005   5.3
   2006171 IR005   5.3
   2006172 IR005   5.3
   2006173 IR005   5.3
   2006174 IR005   5.3
   2006175 IR005   5.3
   2006176 IR005   6.3
   2006177 IR005   6.3
   2006178 IR005   6.3
   2006179 IR005   6.3
   2006180 IR005   6.3
   2006181 IR005   6.3
   2006182 IR005   6.3
   2006183 IR005   6.3
*FERTILIZERS        
      6097 FE011 AP005   10.    9.   25.   12.  -99.    1.     0
      6103 FE011 AP005    1.    9.    0.    0.  -99.    0.   -99
      6107 FE011 AP005    1.   18.    0.   12.  -99.    1.   -99
      6114 FE011 AP005    1.   24.    0.   16.  -99.    1.   -99
      6121 FE011 AP005    1.   24.    0.   16.  -99.    1.   -99
      6128 FE011 AP005    1.   29.    0.   24.  -99.    1.   -99
      6135 FE011 AP005    1.   29.    0.   24.  -99.    1.   -99
      6142 FE011 AP005    1.   29.    0.   24.  -99.    1.   -99
      6149 FE011 AP005    1.   29.    0.   24.  -99.    1.   -99
      6156 FE011 AP005    1.   29.    0.   24.  -99.    1.   -99
      6163 FE011 AP005    1.   29.    0.   24.  -99.    1.   -99
      6170 FE011 AP005    1.   29.    0.   26.  -99.    1.   -99
      6177 FE011 AP005    1.   24.    0.   12.  -99.    1.   -99
*RESIDUES           
*CHEMICALS          
*TILLAGE            
*ENVIRONMENT        
*HARVEST            
   2006183 GS000   -99   -99  100.    0.
*SOIL               
 UFGA010700  SCS         SA     201.   Candler                                         
 Gainesville USA          29.600 -82.370 Hyperthermic uncoated                             
 Y      0.17   6.0  0.85   64.  1.00  0.95 IB001 IB001 IB001 -99  
    5.       0.045 0.091 0.412 1.000  21.0  1.49 0.480   1.3   1.3 -99.0  -9.0  5.50-99.00-99.00-99.00
   15.       0.045 0.091 0.412 1.000  21.0  1.49 0.480   1.3   1.3 -99.0  -9.0  5.50-99.00-99.00-99.00
   30.       0.037 0.076 0.404 0.638  21.0  1.52 0.180   1.3   1.3 -99.0  -9.0  5.30-99.00-99.00-99.00
   45.       0.034 0.071 0.415 0.472  21.0  1.49 0.090   1.3   1.3 -99.0  -9.0  5.10-99.00-99.00-99.00
   60.       0.034 0.071 0.415 0.350  21.0  1.49 0.090   1.3   1.3 -99.0  -9.0  5.10-99.00-99.00-99.00
   90.       0.043 0.081 0.412 0.223  21.0  1.50 0.090   3.0   1.2 -99.0  -9.0  5.20-99.00-99.00-99.00
  120.       0.042 0.078 0.412 0.122  21.0  1.50 0.020   3.0   1.2 -99.0  -9.0  5.30-99.00-99.00-99.00
  150.       0.047 0.084 0.416 0.067  21.0  1.49 0.020   4.0   1.5 -99.0  -9.0  5.20-99.00-99.00-99.00
  180.       0.047 0.084 0.416 0.037  21.0  1.49 0.020   4.0   1.5 -99.0  -9.0  5.20-99.00-99.00-99.00
                    
    5.-99.00 -99.0 -99.0 -99.0 -99.0 -99.0 -99.0 -99.0 -99.0 -99.0-99.00 -99.0 -99.0 -99.0 -99.0 -99.0  -99.  -99.
   15.-99.00 -99.0 -99.0 -99.0 -99.0 -99.0 -99.0 -99.0 -99.0 -99.0-99.00 -99.0 -99.0 -99.0 -99.0 -99.0  -99.  -99.
   30.-99.00 -99.0 -99.0 -99.0 -99.0 -99.0 -99.0 -99.0 -99.0 -99.0-99.00 -99.0 -99.0 -99.0 -99.0 -99.0  -99.  -99.
   45.-99.00 -99.0 -99.0 -99.0 -99.0 -99.0 -99.0 -99.0 -99.0 -99.0-99.00 -99.0 -99.0 -99.0 -99.0 -99.0  -99.  -99.
   60.-99.00 -99.0 -99.0 -99.0 -99.0 -99.0 -99.0 -99.0 -99.0 -99.0-99.00 -99.0 -99.0 -99.0 -99.0 -99.0  -99.  -99.
   90.-99.00 -99.0 -99.0 -99.0 -99.0 -99.0 -99.0 -99.0 -99.0 -99.0-99.00 -99.0 -99.0 -99.0 -99.0 -99.0  -99.  -99.
  120.-99.00 -99.0 -99.0 -99.0 -99.0 -99.0 -99.0 -99.0 -99.0 -99.0-99.00 -99.0 -99.0 -99.0 -99.0 -99.0  -99.  -99.
  150.-99.00 -99.0 -99.0 -99.0 -99.0 -99.0 -99.0 -99.0 -99.0 -99.0-99.00 -99.0 -99.0 -99.0 -99.0 -99.0  -99.  -99.
  180.-99.00 -99.0 -99.0 -99.0 -99.0 -99.0 -99.0 -99.0 -99.0 -99.0-99.00 -99.0 -99.0 -99.0 -99.0 -99.0  -99.  -99.
                    
    5.-99.00-99.00-99.00-99.00
   15.-99.00-99.00-99.00-99.00
   30.-99.00-99.00-99.00-99.00
   45.-99.00-99.00-99.00-99.00
   60.-99.00-99.00-99.00-99.00
   90.-99.00-99.00-99.00-99.00
  120.-99.00-99.00-99.00-99.00
  150.-99.00-99.00-99.00-99.00
  180.-99.00-99.00-99.00-99.00
*CULTIVAR           
TM0001 Florida 47 2010  TM0001 12.33 0.000 24.40  2.20 19.00 45.20 52.00 1.360 300.0 300.0  0.78 0.004 26.00300.00 55.00   8.5 0.300 0.050
