*MODEL INPUT FILE            B     1     1     1   999     0
*FILES              
MODEL          MZCER048
FILEX          FLSC8101.MZX                                                                                 
FILEA          FLSC8101.MZA                                                                                 
FILET          FLSC8101.MZT                                                                                 
SPECIES        MZCER048.SPE C:\DSSAT48\GENOTYPE\                                                            
ECOTYPE        MZCER048.ECO C:\DSSAT48\GENOTYPE\                                                            
CULTIVAR       MZCER048.CUL C:\DSSAT48\GENOTYPE\                                                            
PESTS          MZCER048.PST C:\DSSAT48\PEST\                                                                
SOILS          SOIL.SOL     C:\DSSAT48\SOIL\                                                                
WEATHERW       FLSC8101.WTH C:\DSSAT48\Weather\                                                             
OUTPUT         OVERVIEW
*SIMULATION CONTROL 
                   1     1     S 1981089  2150 N X IRRIG., S.C. (CERES  
                   Y     Y     N     N     N     N     N     Y     M
                   M     M     E     R     S     C     R     1     G     R     2     D     0
                   R     R     R     R     M
                   N     Y     Y     1     Y     N     Y     Y     N     N     Y     N     N
!AUTOMATIC MANAGEM  
                   -99     -99   40.  100.   30.   40.   10.
                 30.   50.  100. GS000 IR001  10.0 1.000
                 30.   50.   25. FE001 GS000
                100.     1   20.
                     0     -99  100.    0.
*EXP.DETAILS        
  1FLSC8101 MZ N X IRRIG., S.C. (CERES MAIZE BK)                           
*TREATMENTS         
  1 1 0 0 Irrigated, 200 kg N/ha   
*CULTIVARS          
   MZ IB0012 PIO 3382        
*FIELDS             
   FLSC0001 FLSC8101   0.0    0. DR000    0. 100.0 00000 -99    151. IBMZ910023-99.00 -99.0
      0.0000000000    0.0000000000     0.000               1.0  100.   1.0   0.0   -99   -99
*INITIAL CONDITIONS 
   MZ    1981089   200     0  1.00  1.00 -99.0   500  0.50  0.00  100.   10.
      5. 0.189  2.00  5.00
     15. 0.189  2.00  5.00
     20. 0.189  2.00  5.00
     30. 0.228  2.00  5.00
     41. 0.228  2.00  5.00
     56. 0.310  2.00  5.00
     71. 0.310  2.00  5.00
    101. 0.320  1.00  2.00
    126. 0.280  1.00  2.00
    151. 0.280  1.00  2.00
*PLANTING DETAILS   
   1981097     -99   7.1   7.1     S     R   50.    0.   4.0  -99.  -99. -99.0 -99.0   0.0
*IRRIGATION         
   1.000   30.   75.  -99. GS000 IR001   0.0
   1981121 IR001  14.0
   1981133 IR001   4.0
   1981139 IR001  14.0
   1981146 IR001  14.0
   1981153 IR001   6.0
   1981160 IR001  11.0
   1981162 IR001  27.0
   1981168 IR001  27.0
   1981170 IR001  27.0
   1981174 IR001  26.0
   1981177 IR001  26.0
   1981201 IR001  28.0
   1981205 IR001  27.0
*FERTILIZERS        
   1981090 FE005 AP009   10.   66.    0.    0.    0.    0.   -99
   1981139 FE005 AP009   10.   66.    0.    0.    0.    0.   -99
   1981153 FE005 AP009   10.   66.    0.    0.    0.    0.   -99
*RESIDUES           
*CHEMICALS          
*TILLAGE            
*ENVIRONMENT        
*HARVEST            
*SOIL               
 IBMZ910023  IBSNAT      -99    151.   Norfolk Loamy Sand                              
 Florence,SC USA          -0.009  -0.099 Norfolk Loamy Sand                                
 -99    0.14   5.0  0.60   60.  1.00  1.00 IB001 IB001 IB001 -99  
    5.       0.075 0.210 0.250 1.000  -99.  1.55 0.300 -99.0 -99.0 -99.0  -9.0  7.00-99.00-99.00-99.00
   15.       0.075 0.210 0.250 1.000  -99.  1.55 0.300 -99.0 -99.0 -99.0  -9.0  7.00-99.00-99.00-99.00
   20.       0.075 0.210 0.250 1.000  -99.  1.55 0.300 -99.0 -99.0 -99.0  -9.0  7.00-99.00-99.00-99.00
   30.       0.100 0.240 0.290 0.800  -99.  1.67 0.170 -99.0 -99.0 -99.0  -9.0  7.00-99.00-99.00-99.00
   41.       0.100 0.240 0.290 0.800  -99.  1.67 0.170 -99.0 -99.0 -99.0  -9.0  7.00-99.00-99.00-99.00
   56.       0.210 0.310 0.350 0.400  -99.  1.54 0.010 -99.0 -99.0 -99.0  -9.0  7.00-99.00-99.00-99.00
   71.       0.210 0.310 0.350 0.400  -99.  1.54 0.010 -99.0 -99.0 -99.0  -9.0  7.00-99.00-99.00-99.00
  101.       0.210 0.320 0.360 0.100  -99.  1.54 0.010 -99.0 -99.0 -99.0  -9.0  7.00-99.00-99.00-99.00
  126.       0.180 0.280 0.320 0.100  -99.  1.68 0.010 -99.0 -99.0 -99.0  -9.0  7.00-99.00-99.00-99.00
  151.       0.180 0.280 0.320 0.100  -99.  1.74 0.010 -99.0 -99.0 -99.0  -9.0  7.00-99.00-99.00-99.00
                    
    5.-99.00 -99.0 -99.0 -99.0 -99.0 -99.0 -99.0 -99.0 -99.0 -99.0-99.00 -99.0 -99.0 -99.0 -99.0 -99.0  -99.  -99.
   15.-99.00 -99.0 -99.0 -99.0 -99.0 -99.0 -99.0 -99.0 -99.0 -99.0-99.00 -99.0 -99.0 -99.0 -99.0 -99.0  -99.  -99.
   20.-99.00 -99.0 -99.0 -99.0 -99.0 -99.0 -99.0 -99.0 -99.0 -99.0-99.00 -99.0 -99.0 -99.0 -99.0 -99.0  -99.  -99.
   30.-99.00 -99.0 -99.0 -99.0 -99.0 -99.0 -99.0 -99.0 -99.0 -99.0-99.00 -99.0 -99.0 -99.0 -99.0 -99.0  -99.  -99.
   41.-99.00 -99.0 -99.0 -99.0 -99.0 -99.0 -99.0 -99.0 -99.0 -99.0-99.00 -99.0 -99.0 -99.0 -99.0 -99.0  -99.  -99.
   56.-99.00 -99.0 -99.0 -99.0 -99.0 -99.0 -99.0 -99.0 -99.0 -99.0-99.00 -99.0 -99.0 -99.0 -99.0 -99.0  -99.  -99.
   71.-99.00 -99.0 -99.0 -99.0 -99.0 -99.0 -99.0 -99.0 -99.0 -99.0-99.00 -99.0 -99.0 -99.0 -99.0 -99.0  -99.  -99.
  101.-99.00 -99.0 -99.0 -99.0 -99.0 -99.0 -99.0 -99.0 -99.0 -99.0-99.00 -99.0 -99.0 -99.0 -99.0 -99.0  -99.  -99.
  126.-99.00 -99.0 -99.0 -99.0 -99.0 -99.0 -99.0 -99.0 -99.0 -99.0-99.00 -99.0 -99.0 -99.0 -99.0 -99.0  -99.  -99.
  151.-99.00 -99.0 -99.0 -99.0 -99.0 -99.0 -99.0 -99.0 -99.0 -99.0-99.00 -99.0 -99.0 -99.0 -99.0 -99.0  -99.  -99.
                    
    5.-99.00-99.00-99.00-99.00
   15.-99.00-99.00-99.00-99.00
   20.-99.00-99.00-99.00-99.00
   30.-99.00-99.00-99.00-99.00
   41.-99.00-99.00-99.00-99.00
   56.-99.00-99.00-99.00-99.00
   71.-99.00-99.00-99.00-99.00
  101.-99.00-99.00-99.00-99.00
  126.-99.00-99.00-99.00-99.00
  151.-99.00-99.00-99.00-99.00
*CULTIVAR           
IB0012 PIO 3382         IB0001  160.0 0.700 950.0 845.0  8.40 38.90
