*MODEL INPUT FILE            B     1     1     1   999     0
*FILES              
MODEL          PRFRM048
FILEX          AGZG1501.ALX                                                                                 
FILEA          AGZG1501.ALA                                                                                 
FILET          AGZG1501.ALT                                                                                 
SPECIES        ALFRM048.SPE C:\DSSAT48\GENOTYPE\                                                            
ECOTYPE        ALFRM048.ECO C:\DSSAT48\GENOTYPE\                                                            
CULTIVAR       ALFRM048.CUL C:\DSSAT48\GENOTYPE\                                                            
PESTS          ALFRM048.PST C:\DSSAT48\PEST\                                                                
SOILS          AG.SOL       C:\DSSAT48\SOIL\                                                                
WEATHERW       TARD1501.WTH C:\DSSAT48\Weather\                                                             
OUTPUT         OVERVIEW
*SIMULATION CONTROL 
                   1     1     P 2015263  2150 Old                      
                   Y     Y     Y     N     N     N     N     Y     M
                   M     M     E     F     S     L     R     1     P     R     2     D     0
                   R     R     R     R     R
                   N     Y     Y     1     Y     Y     Y     Y     Y     Y     Y     Y     N
!AUTOMATIC MANAGEM  
                   -99     -99    0.    0.    0.    0.    0.
                 30.   50.  100. GS000 IR004   0.0 0.000
                  0.    0.    0. FE001 GS000
                  0.     0    0.
                     0     -99    0.    0.
*EXP.DETAILS        
  1AGZG1501 AL IRRIGATED Aragon, Montanana, SPAIN                          
*TREATMENTS         
  1 1 1 0 Montanana,SP Irrig       
*CULTIVARS          
   AL AL0001 Aragon  FD7     
*FIELDS             
   AGZA1501 TARD1501   0.0  -99.   -99  -99. 100.0   -99 SIC    -99. AGSP209115-99.00 -99.0
     42.0000000000    0.0000000000   222.000               1.0  100.   1.0 -99.0   -99   -99
*INITIAL CONDITIONS 
               0     0     0  1.00  1.00 -99.0     0  0.00  0.00  100.    0.
      5. 0.433   0.0   0.0
     15. 0.433   0.0   0.0
     30. 0.433   0.0   0.0
     45. 0.449   0.0   0.0
     60. 0.449   0.0   0.0
     90. 0.470   0.0   0.0
    120. 0.464   0.0   0.0
*PLANTING DETAILS   
   2015263     -99 400.0 400.0     S     R   10.    0.   2.0 2000.  150.  32.0   1.0   0.0
*IRRIGATION         
   1.000   30.   50.  100. GS000 IR001  10.0
   2016118 IR004  17.2
   2016119 IR004  10.6
   2016123 IR004   3.5
   2016125 IR004   5.8
   2016127 IR004   5.8
   2016128 IR004   5.8
   2016135 IR004   5.8
   2016137 IR004   3.9
   2016139 IR004   3.9
   2016141 IR004   3.9
   2016142 IR004   3.9
   2016144 IR004   3.9
   2016146 IR004  11.5
   2016148 IR004   8.6
   2016149 IR004   5.8
   2016151 IR004   5.8
   2016153 IR004  11.6
   2016155 IR004  11.7
   2016156 IR004   4.8
   2016165 IR004   5.2
   2016167 IR004   6.4
   2016168 IR004   5.2
   2016169 IR004   6.3
   2016170 IR004   5.2
   2016171 IR004   5.8
   2016172 IR004   6.4
   2016173 IR004   5.2
   2016174 IR004   6.4
   2016175 IR004   5.0
   2016176 IR004  17.5
   2016177 IR004   6.4
   2016178 IR004  11.6
   2016180 IR004   5.2
   2016181 IR004   6.4
   2016182 IR004   5.2
   2016183 IR004   5.7
   2016184 IR004   6.4
   2016185 IR004  11.4
   2016187 IR004   5.2
   2016188 IR004  12.8
   2016196 IR004  14.5
   2016198 IR004   8.0
   2016199 IR004   6.5
   2016201 IR004   8.0
   2016202 IR004   6.5
   2016203 IR004  37.9
   2016204 IR004  14.4
   2016205 IR004   7.9
   2016206 IR004   6.4
   2016206 IR004  43.6
   2016209 IR004   6.4
   2016210 IR004   7.9
   2016211 IR004   6.4
   2016212 IR004  38.3
   2016213 IR004  14.3
   2016215 IR004   8.0
   2016216 IR004   6.5
   2016217 IR004  38.6
   2016218 IR004   7.9
   2016219 IR004   6.5
   2016220 IR004  14.5
   2016230 IR004   8.0
   2016231 IR004   6.5
   2016232 IR004  14.4
   2016233 IR004   7.9
   2016235 IR004   6.5
   2016236 IR004  14.4
   2016237 IR004   7.9
   2016238 IR004   6.5
   2016239 IR004   5.8
   2016240 IR004   5.8
   2016242 IR004   5.8
   2016243 IR004   5.8
   2016244 IR004   5.8
   2016245 IR004   5.8
   2016246 IR004   5.7
   2016247 IR004   5.8
   2016249 IR004   5.8
   2016250 IR004   5.8
   2016251 IR004   5.8
   2016252 IR004   5.8
   2016253 IR004   5.8
   2016254 IR004   5.8
   2016255 IR004   5.8
   2016257 IR004   5.8
   2016264 IR004   5.8
   2016271 IR004   5.8
   2016278 IR004   5.8
   2016285 IR004   5.8
   2016289 IR004   5.8
   2016294 IR004   5.8
*FERTILIZERS        
   2016119 FE001 AP001    1.   63.  162.  -99.  -99.  -99.   -99
*RESIDUES           
*CHEMICALS          
*TILLAGE            
*ENVIRONMENT        
*HARVEST            
   2017120 GS000     C     A  100.    0.
*SOIL               
 AGSP209115  EUROFINS    SIC    -99.   ALFALFA, HYDRANT 209b                           
 LA VIOLADA  SPAIN         0.041   0.000 PETROCALCIC CALCIXEREPT                           
 G      0.13   6.0  0.60   73.  1.00  1.00 IB001 IB001 IB001 -99  
    5.       0.117 0.433 0.497 1.000 .0900  1.50 1.800  42.9  51.0 -99.0  -9.0  8.00-99.00 16.00-99.00
   15.       0.117 0.433 0.497 1.000 .0900  1.50 1.800  42.9  51.0 -99.0  -9.0  8.00-99.00 16.00-99.00
   30.       0.117 0.433 0.497 1.000 .0900  1.50 1.800  42.9  51.0 -99.0  -9.0  8.00-99.00 16.00-99.00
   45.       0.220 0.449 0.553 0.407 0.680  1.50 0.500   6.4  70.0 -99.0  -9.0  8.00-99.00 13.00-99.00
   60.       0.220 0.449 0.553 0.407 0.680  1.50 0.500   6.4  70.0 -99.0  -9.0  8.00-99.00 13.00-99.00
   90.       0.219 0.470 0.507 0.223 0.680  1.50 0.800  24.4  60.0 -99.0  -9.0  8.00-99.00 11.00-99.00
  120.       0.223 0.464 0.546 0.122 0.680  1.40 0.400   5.5  67.0 -99.0  -9.0  8.00-99.00 14.00-99.00
                    
    5.-99.00 -99.0 -99.0 -99.0 -99.0 -99.0 -99.0 -99.0 -99.0 -99.0-99.00 -99.0 -99.0 -99.0 -99.0 -99.0  -99.  -99.
   15.-99.00 -99.0 -99.0 -99.0 -99.0 -99.0 -99.0 -99.0 -99.0 -99.0-99.00 -99.0 -99.0 -99.0 -99.0 -99.0  -99.  -99.
   30.-99.00 -99.0 -99.0 -99.0 -99.0 -99.0 -99.0 -99.0 -99.0 -99.0-99.00 -99.0 -99.0 -99.0 -99.0 -99.0  -99.  -99.
   45.-99.00 -99.0 -99.0 -99.0 -99.0 -99.0 -99.0 -99.0 -99.0 -99.0-99.00 -99.0 -99.0 -99.0 -99.0 -99.0  -99.  -99.
   60.-99.00 -99.0 -99.0 -99.0 -99.0 -99.0 -99.0 -99.0 -99.0 -99.0-99.00 -99.0 -99.0 -99.0 -99.0 -99.0  -99.  -99.
   90.-99.00 -99.0 -99.0 -99.0 -99.0 -99.0 -99.0 -99.0 -99.0 -99.0-99.00 -99.0 -99.0 -99.0 -99.0 -99.0  -99.  -99.
  120.-99.00 -99.0 -99.0 -99.0 -99.0 -99.0 -99.0 -99.0 -99.0 -99.0-99.00 -99.0 -99.0 -99.0 -99.0 -99.0  -99.  -99.
                    
    5.-99.00-99.00-99.00-99.00
   15.-99.00-99.00-99.00-99.00
   30.-99.00-99.00-99.00-99.00
   45.-99.00-99.00-99.00-99.00
   60.-99.00-99.00-99.00-99.00
   90.-99.00-99.00-99.00-99.00
  120.-99.00-99.00-99.00-99.00
*CULTIVAR           
AL0001 Aragon  FD7      G00001 12.50 0.200 99.00 10.00 18.00 33.00 25.00 1.400 240.0   2.0  0.01 0.020 15.00  2.05 20.00  78.0 0.115 0.035
