*MODEL INPUT FILE            B     1     1     1   999     0
*FILES              
MODEL          CSCER048
FILEX          IEBR8201.BAX                                                                                 
FILEA          IEBR8201.BAA                                                                                 
FILET          IEBR8201.BAT                                                                                 
SPECIES        BACER048.SPE C:\DSSAT48\GENOTYPE\                                                            
ECOTYPE        BACER048.ECO C:\DSSAT48\GENOTYPE\                                                            
CULTIVAR       BACER048.CUL C:\DSSAT48\GENOTYPE\                                                            
PESTS          BACER048.PST C:\DSSAT48\PEST\                                                                
SOILS          SOIL.SOL     C:\DSSAT48\SOIL\                                                                
WEATHERW       IEBR8201.WTH C:\DSSAT48\Weather\                                                             
OUTPUT         OVERVIEW
*SIMULATION CONTROL 
                   1     1     S 1982298  2150 Breda, Syria 1982/83     
                   Y     Y     N     N     N     N     N     N     M
                   M     M     E     R     S     C     R     1     G     R     2     D     0
                   R     R     R     N     M
                   N     Y     Y     1     Y     N     Y     Y     N     N     Y     N     N
!AUTOMATIC MANAGEM  
                   -99     -99   40.  100.   30.   40.   10.
                 30.   50.  100. GS001 IR001  10.0 1.000
                 30.   50.   25. FE001 GS001
                100.     1   20.
                     0     -99  100.    0.
*EXP.DETAILS        
  1IEBR8201 BA N RESPONSE,ICARDA  2FE(N)*2CU  (DSSAT3)                     
*TREATMENTS         
  1 1 0 0 N0*C1 0N;A.Abiad         
*CULTIVARS          
   BA IB0101 A.Abiad (2)     
*FIELDS             
   IEBR0001 IEBR8201   0.0    0. DR000    0. 100.0 00000 CL     105. IBBA980008-99.00 -99.0
      0.0000000000    0.0000000000     0.000               1.0  100.   1.0   0.0   -99   -99
*INITIAL CONDITIONS 
   BA    1982298   200     0  1.00  1.00 -99.0   200  0.53  0.00  100.    5.
      5. 0.180  3.00  10.0
     15. 0.180  2.80  8.00
     30. 0.190  2.60  4.00
     45. 0.240  2.40  2.00
     60. 0.267  2.20  2.00
     75. 0.255  2.00  2.00
     90. 0.260  2.00  2.00
    105. 0.258  2.00  2.00
*PLANTING DETAILS   
   1982319     -99 225.0 225.0     S     R   15.    0.   2.0  -99.  -99. -99.0 -99.0   0.0
*IRRIGATION         
   1.000    0.    0.    0. GS000 IR001   0.0
*FERTILIZERS        
*RESIDUES           
*CHEMICALS          
*TILLAGE            
*ENVIRONMENT        
*HARVEST            
*SOIL               
 IBBA980008  IBSNAT      CL     105.   Typic Calciorthid                               
 Breda       Syria        35.200   0.040 Typic Calciorthid                                 
 -99    0.14   6.0  0.50   72.  1.00  1.00 SA001 SA001 SA001 -99  
    5.       0.170 0.290 0.460 1.000  -99.  1.10 0.630 -99.0 -99.0 -99.0  -9.0  7.00-99.00-99.00-99.00
   15.       0.190 0.310 0.460 1.000  -99.  1.10 0.630 -99.0 -99.0 -99.0  -9.0  7.00-99.00-99.00-99.00
   30.       0.190 0.310 0.460 1.000  -99.  1.20 0.500 -99.0 -99.0 -99.0  -9.0  7.00-99.00-99.00-99.00
   45.       0.220 0.330 0.460 0.750  -99.  1.20 0.300 -99.0 -99.0 -99.0  -9.0  7.00-99.00-99.00-99.00
   60.       0.220 0.330 0.460 0.650  -99.  1.20 0.250 -99.0 -99.0 -99.0  -9.0  7.00-99.00-99.00-99.00
   75.       0.220 0.330 0.460 0.450  -99.  1.20 0.190 -99.0 -99.0 -99.0  -9.0  7.00-99.00-99.00-99.00
   90.       0.220 0.330 0.460 0.350  -99.  1.20 0.130 -99.0 -99.0 -99.0  -9.0  7.00-99.00-99.00-99.00
  105.       0.220 0.330 0.460 0.100  -99.  1.20 0.130 -99.0 -99.0 -99.0  -9.0  7.00-99.00-99.00-99.00
                    
    5.-99.00 -99.0 -99.0 -99.0 -99.0 -99.0 -99.0 -99.0 -99.0 -99.0-99.00 -99.0 -99.0 -99.0 -99.0 -99.0  -99.  -99.
   15.-99.00 -99.0 -99.0 -99.0 -99.0 -99.0 -99.0 -99.0 -99.0 -99.0-99.00 -99.0 -99.0 -99.0 -99.0 -99.0  -99.  -99.
   30.-99.00 -99.0 -99.0 -99.0 -99.0 -99.0 -99.0 -99.0 -99.0 -99.0-99.00 -99.0 -99.0 -99.0 -99.0 -99.0  -99.  -99.
   45.-99.00 -99.0 -99.0 -99.0 -99.0 -99.0 -99.0 -99.0 -99.0 -99.0-99.00 -99.0 -99.0 -99.0 -99.0 -99.0  -99.  -99.
   60.-99.00 -99.0 -99.0 -99.0 -99.0 -99.0 -99.0 -99.0 -99.0 -99.0-99.00 -99.0 -99.0 -99.0 -99.0 -99.0  -99.  -99.
   75.-99.00 -99.0 -99.0 -99.0 -99.0 -99.0 -99.0 -99.0 -99.0 -99.0-99.00 -99.0 -99.0 -99.0 -99.0 -99.0  -99.  -99.
   90.-99.00 -99.0 -99.0 -99.0 -99.0 -99.0 -99.0 -99.0 -99.0 -99.0-99.00 -99.0 -99.0 -99.0 -99.0 -99.0  -99.  -99.
  105.-99.00 -99.0 -99.0 -99.0 -99.0 -99.0 -99.0 -99.0 -99.0 -99.0-99.00 -99.0 -99.0 -99.0 -99.0 -99.0  -99.  -99.
                    
    5.-99.00-99.00-99.00-99.00
   15.-99.00-99.00-99.00-99.00
   30.-99.00-99.00-99.00-99.00
   45.-99.00-99.00-99.00-99.00
   60.-99.00-99.00-99.00-99.00
   75.-99.00-99.00-99.00-99.00
   90.-99.00-99.00-99.00-99.00
  105.-99.00-99.00-99.00-99.00
*CULTIVAR           
