*MODEL INPUT FILE            B     1     1     1   999     0
*FILES              
MODEL          CRGRO048
FILEX          UFGA9001.PNX                                                                                 
FILEA          UFGA9001.PNA                                                                                 
FILET          UFGA9001.PNT                                                                                 
SPECIES        PNGRO048.SPE C:\DSSAT48\GENOTYPE\                                                            
ECOTYPE        PNGRO048.ECO C:\DSSAT48\GENOTYPE\                                                            
CULTIVAR       PNGRO048.CUL C:\DSSAT48\GENOTYPE\                                                            
PESTS          PNGRO048.PST C:\DSSAT48\PEST\                                                                
SOILS          SOIL.SOL     C:\DSSAT48\SOIL\                                                                
WEATHERW       UFGA9001.WTH C:\DSSAT48\Weather\                                                             
OUTPUT         OVERVIEW
*SIMULATION CONTROL 
                   1     1     S 1990149  2150 W-2 EIGHT CULT, SPACED P 
                   Y     Y     Y     N     N     N     N     N     M
                   M     M     E     R     S     L     R     1     G     R     2     D     0
                   R     R     R     R     M
                   N     Y     Y     1     Y     Y     Y     Y     N     N     Y     N     Y
!AUTOMATIC MANAGEM  
                   -99     -99   40.  100.   30.   40.   10.
                 30.   50.  100. IB001 IB001  10.0 0.750
                 30.   50.   25. IB001 IB001
                100.     1   20.
                     0     -99  100.    0.
*EXP.DETAILS        
  1UFGA9001 PN W-2 EIGHT CULT, SPACED PLANT PHENOLOGY                      
*TREATMENTS         
  1 1 1 0 ROBUT-33, 524            
*CULTIVARS          
   PN IB0026 ROBUT-33,uf v35 
*FIELDS             
   UFGA0001 UFGA9001   0.0    0. IB000    0. 100.0 00000 S      180. IBPN910015-99.00 -99.0
    -99.0000000000  -99.0000000000   -99.000               1.0  100.   1.0 -99.0   -99   -99
*INITIAL CONDITIONS 
   PN    1990149   100     0  1.00  1.00 -99.0     0  0.00  0.00  100.    0.
      5. 0.086 0.600  1.50
     15. 0.086 0.600  1.50
     30. 0.086 0.600  1.50
     45. 0.086 0.600  1.50
     60. 0.086 0.600  1.50
     90. 0.076 0.600 0.600
    120. 0.076 0.600 0.500
    150. 0.130 0.600 0.500
    180. 0.258 0.600 0.500
*PLANTING DETAILS   
   1990149     -99   1.2   1.2     S     R   91.    0.   3.5  -99.  -99. -99.0 -99.0 -99.0
*IRRIGATION         
   0.750   30.   75.  -99. GS000 IR001   0.0
   1990152 IR001   2.0
   1990192 IR001   1.0
   1990214 IR001   2.0
   1990229 IR001   2.0
*FERTILIZERS        
*RESIDUES           
   1990149 IB001  1000  0.80  0.00  0.00  100.   15.   -99
*CHEMICALS          
*TILLAGE            
*ENVIRONMENT        
*HARVEST            
*SOIL               
 IBPN910015  SCS         S      180.   Millhopper Fine Sand                            
 Gainesville USA          29.600 -82.370 Loamy,silic,hyperth Gross. Paleudults             
 -99    0.18   5.0  0.50   66.  1.00  0.92 IB001 IB001 IB001 -99  
    5.       0.023 0.086 0.230 1.000  7.40  1.36 0.900   0.9  11.8 -99.0  -9.0  7.00-99.00-99.00-99.00
   15.       0.023 0.086 0.230 1.000  7.40  1.40 0.690   0.9  11.8 -99.0  -9.0  7.00-99.00-99.00-99.00
   30.       0.023 0.086 0.230 0.550  15.8  1.46 0.280   4.6   6.4 -99.0  -9.0  7.00-99.00-99.00-99.00
   45.       0.023 0.086 0.230 0.320  28.0  1.46 0.200   5.8   5.4 -99.0  -9.0  7.00-99.00-99.00-99.00
   60.       0.023 0.086 0.230 0.320  28.0  1.47 0.200   5.8   5.4 -99.0  -9.0  7.00-99.00-99.00-99.00
   90.       0.021 0.076 0.230 0.380  27.6  1.43 0.090   9.6   4.2 -99.0  -9.0  7.00-99.00-99.00-99.00
  120.       0.020 0.076 0.230 0.400  17.5  1.48 0.030   9.6   4.2 -99.0  -9.0  7.00-99.00-99.00-99.00
  150.       0.027 0.130 0.230 0.300 0.300  1.57 0.030   8.3   3.6 -99.0  -9.0  7.00-99.00-99.00-99.00
  180.       0.070 0.258 0.360 0.200 0.100  1.79 0.030   8.3   3.6 -99.0  -9.0  7.00-99.00-99.00-99.00
                    
    5.-99.00 -99.0 -99.0 -99.0 -99.0 -99.0 -99.0 -99.0 -99.0 -99.0-99.00 -99.0 -99.0 -99.0 -99.0 -99.0  -99.  -99.
   15.-99.00 -99.0 -99.0 -99.0 -99.0 -99.0 -99.0 -99.0 -99.0 -99.0-99.00 -99.0 -99.0 -99.0 -99.0 -99.0  -99.  -99.
   30.-99.00 -99.0 -99.0 -99.0 -99.0 -99.0 -99.0 -99.0 -99.0 -99.0-99.00 -99.0 -99.0 -99.0 -99.0 -99.0  -99.  -99.
   45.-99.00 -99.0 -99.0 -99.0 -99.0 -99.0 -99.0 -99.0 -99.0 -99.0-99.00 -99.0 -99.0 -99.0 -99.0 -99.0  -99.  -99.
   60.-99.00 -99.0 -99.0 -99.0 -99.0 -99.0 -99.0 -99.0 -99.0 -99.0-99.00 -99.0 -99.0 -99.0 -99.0 -99.0  -99.  -99.
   90.-99.00 -99.0 -99.0 -99.0 -99.0 -99.0 -99.0 -99.0 -99.0 -99.0-99.00 -99.0 -99.0 -99.0 -99.0 -99.0  -99.  -99.
  120.-99.00 -99.0 -99.0 -99.0 -99.0 -99.0 -99.0 -99.0 -99.0 -99.0-99.00 -99.0 -99.0 -99.0 -99.0 -99.0  -99.  -99.
  150.-99.00 -99.0 -99.0 -99.0 -99.0 -99.0 -99.0 -99.0 -99.0 -99.0-99.00 -99.0 -99.0 -99.0 -99.0 -99.0  -99.  -99.
  180.-99.00 -99.0 -99.0 -99.0 -99.0 -99.0 -99.0 -99.0 -99.0 -99.0-99.00 -99.0 -99.0 -99.0 -99.0 -99.0  -99.  -99.
                    
    5.-99.00-99.00-99.00-99.00
   15.-99.00-99.00-99.00-99.00
   30.-99.00-99.00-99.00-99.00
   45.-99.00-99.00-99.00-99.00
   60.-99.00-99.00-99.00-99.00
   90.-99.00-99.00-99.00-99.00
  120.-99.00-99.00-99.00-99.00
  150.-99.00-99.00-99.00-99.00
  180.-99.00-99.00-99.00-99.00
*CULTIVAR           
IB0026 ROBUT-33,uf v35  PN0015 11.84 0.000 19.00  7.00 17.50 70.00 78.00 1.280 260.0  16.0  0.84 0.500 29.00  1.65 15.00  78.0 0.270 0.510
