*MODEL INPUT FILE            B     1     1     1   999     0
*FILES              
MODEL          CRGRO048
FILEX          CCPO9002.BNX                                                                                 
FILEA          CCPO9002.BNA                                                                                 
FILET          CCPO9002.BNT                                                                                 
SPECIES        BNGRO048.SPE C:\DSSAT48\GENOTYPE\                                                            
ECOTYPE        BNGRO048.ECO C:\DSSAT48\GENOTYPE\                                                            
CULTIVAR       BNGRO048.CUL C:\DSSAT48\GENOTYPE\                                                            
PESTS          BNGRO048.PST C:\DSSAT48\PEST\                                                                
SOILS          SOIL.SOL     C:\DSSAT48\SOIL\                                                                
WEATHERW       CCPO9001.WTH C:\DSSAT48\Weather\                                                             
OUTPUT         OVERVIEW
*SIMULATION CONTROL 
                   1     1     S 1990115  2150 POPAYAN SEED SIZE TRIAL  
                   Y     Y     Y     N     N     N     N     Y     M
                   M     M     E     R     S     L     R     1     G     R     2     D     0
                   R     R     R     R     M
                   N     Y     Y     1     Y     Y     Y     Y     N     N     Y     N     N
!AUTOMATIC MANAGEM  
                   -99     -99   40.  100.   30.   40.   10.
                 30.   20.   80. IB001 IB001  10.0 1.000
                 30.   50.   25. IB001 IB001
                100.     1   20.
                     0     -99  100.    0.
*EXP.DETAILS        
  1CCPO9002 BN POPAYAN SEED SIZE TRIAL - 16 CULTIVARS                      
*TREATMENTS         
  1 1 1 0 A 193 : SEED-SIZE TRIAL  
*CULTIVARS          
   BN IB0033 A 193 (hab 2)   
*FIELDS             
   CCPO0001 CCPO9001   0.0    0. DR000    0. 100.0 00000 SIL    200. CCBN880060-99.00 -99.0
    -99.0000000000  -99.0000000000   -99.000               1.0  100.   1.0 -99.0   -99   -99
*INITIAL CONDITIONS 
   BN    1990115     1     0  1.00  1.00 -99.0     0  0.00  0.00  100.    0.
      5. 0.400   0.0   0.0
     15. 0.398   0.0   0.0
     30. 0.336   0.0   0.0
     39. 0.300   0.0   0.0
     52. 0.300   0.0   0.0
     66. 0.300   0.0   0.0
     74. 0.300   0.0   0.0
     82. 0.300   0.0   0.0
    102. 0.300   0.0   0.0
    124. 0.300   0.0   0.0
    137. 0.300   0.0   0.0
    156. 0.300   0.0   0.0
    176. 0.300   0.0   0.0
    200. 0.300   0.0   0.0
*PLANTING DETAILS   
   1990115     -99  25.0  25.0     S     R   50.    0.   2.0  -99.  -99. -99.0 -99.0 -99.0
*IRRIGATION         
   0.750   30.   75.  -99. GS000 IR001   0.0
   1990178 IR001  15.0
   1990184 IR001  15.0
   1990190 IR001  15.0
*FERTILIZERS        
   1990115 FE009   001    4.   80.  -99.  -99.  -99.  -99.   -99
*RESIDUES           
*CHEMICALS          
*TILLAGE            
*ENVIRONMENT        
*HARVEST            
*SOIL               
 CCBN880060  SCS         SIL    200.   UNKNOWN                                         
 POPAYAN     COLOMBIA      2.400 -76.580 MEDIAL, ISOTHERMIC TYPIC DYSTRANDEPT (INCEPTISOL) 
 BK     0.09   8.7  0.60   76.  1.00  0.90 IB001 IB001 IB001 -99  
    5.       0.075 0.215 0.406 0.500  -99.  0.58  16.8   9.0  61.6   0.0 1.250  5.70-99.00-99.00-99.00
   15.       0.068 0.207 0.399 0.440  -99.  0.57  16.6   7.4  59.9   0.0 1.188  5.54-99.00-99.00-99.00
   30.       0.039 0.175 0.371 0.200  -99.  0.55  15.8   0.9  53.0   0.0 0.940  4.90-99.00-99.00-99.00
   39.       0.050 0.164 0.302 0.100  -99.  0.52 6.870   0.0  18.5   0.0 0.580  5.10-99.00-99.00-99.00
   52.       0.043 0.139 0.302 0.100  -99.  0.48 3.800   0.0  14.0   0.0 0.360  5.30-99.00-99.00-99.00
   66.       0.043 0.139 0.302 0.100  -99.  0.48 3.800   0.0  14.0   0.0 0.360  5.30-99.00-99.00-99.00
   74.       0.041 0.130 0.302 0.100  -99.  0.51 2.190   0.0  12.4   0.0   0.0  5.30-99.00-99.00-99.00
   82.       0.041 0.130 0.302 0.100  -99.  0.51 2.190   0.0  12.4   0.0   0.0  5.30-99.00-99.00-99.00
  102.       0.044 0.140 0.302 0.100  -99.  0.62 1.880   0.0  14.2   0.0   0.0  5.30-99.00-99.00-99.00
  124.       0.040 0.128 0.302 0.100  -99.  0.64 1.510   0.0  12.0   0.0   0.0  5.20-99.00-99.00-99.00
  137.       0.045 0.145 0.302 0.000  -99.  0.51 1.660   0.0  15.2   0.0   0.0  5.20-99.00-99.00-99.00
  156.       0.037 0.117 0.302 0.000  -99.  0.48 1.310   0.0  10.0   0.0   0.0  5.20-99.00-99.00-99.00
  176.       0.037 0.117 0.302 0.000  -99.  0.48 1.310   0.0  10.0   0.0   0.0  5.20-99.00-99.00-99.00
  200.       0.033 0.104 0.302 0.000  -99.  0.40 1.650   0.0   7.7   0.0   0.0  5.60-99.00-99.00-99.00
                    
    5.-99.00 -99.0 -99.0 -99.0 -99.0 -99.0 -99.0 -99.0 -99.0 -99.0-99.00 -99.0 -99.0 -99.0 -99.0 -99.0  -99.  -99.
   15.-99.00 -99.0 -99.0 -99.0 -99.0 -99.0 -99.0 -99.0 -99.0 -99.0-99.00 -99.0 -99.0 -99.0 -99.0 -99.0  -99.  -99.
   30.-99.00 -99.0 -99.0 -99.0 -99.0 -99.0 -99.0 -99.0 -99.0 -99.0-99.00 -99.0 -99.0 -99.0 -99.0 -99.0  -99.  -99.
   39.-99.00 -99.0 -99.0 -99.0 -99.0 -99.0 -99.0 -99.0 -99.0 -99.0-99.00 -99.0 -99.0 -99.0 -99.0 -99.0  -99.  -99.
   52.-99.00 -99.0 -99.0 -99.0 -99.0 -99.0 -99.0 -99.0 -99.0 -99.0-99.00 -99.0 -99.0 -99.0 -99.0 -99.0  -99.  -99.
   66.-99.00 -99.0 -99.0 -99.0 -99.0 -99.0 -99.0 -99.0 -99.0 -99.0-99.00 -99.0 -99.0 -99.0 -99.0 -99.0  -99.  -99.
   74.-99.00 -99.0 -99.0 -99.0 -99.0 -99.0 -99.0 -99.0 -99.0 -99.0-99.00 -99.0 -99.0 -99.0 -99.0 -99.0  -99.  -99.
   82.-99.00 -99.0 -99.0 -99.0 -99.0 -99.0 -99.0 -99.0 -99.0 -99.0-99.00 -99.0 -99.0 -99.0 -99.0 -99.0  -99.  -99.
  102.-99.00 -99.0 -99.0 -99.0 -99.0 -99.0 -99.0 -99.0 -99.0 -99.0-99.00 -99.0 -99.0 -99.0 -99.0 -99.0  -99.  -99.
  124.-99.00 -99.0 -99.0 -99.0 -99.0 -99.0 -99.0 -99.0 -99.0 -99.0-99.00 -99.0 -99.0 -99.0 -99.0 -99.0  -99.  -99.
  137.-99.00 -99.0 -99.0 -99.0 -99.0 -99.0 -99.0 -99.0 -99.0 -99.0-99.00 -99.0 -99.0 -99.0 -99.0 -99.0  -99.  -99.
  156.-99.00 -99.0 -99.0 -99.0 -99.0 -99.0 -99.0 -99.0 -99.0 -99.0-99.00 -99.0 -99.0 -99.0 -99.0 -99.0  -99.  -99.
  176.-99.00 -99.0 -99.0 -99.0 -99.0 -99.0 -99.0 -99.0 -99.0 -99.0-99.00 -99.0 -99.0 -99.0 -99.0 -99.0  -99.  -99.
  200.-99.00 -99.0 -99.0 -99.0 -99.0 -99.0 -99.0 -99.0 -99.0 -99.0-99.00 -99.0 -99.0 -99.0 -99.0 -99.0  -99.  -99.
                    
    5.-99.00-99.00-99.00-99.00
   15.-99.00-99.00-99.00-99.00
   30.-99.00-99.00-99.00-99.00
   39.-99.00-99.00-99.00-99.00
   52.-99.00-99.00-99.00-99.00
   66.-99.00-99.00-99.00-99.00
   74.-99.00-99.00-99.00-99.00
   82.-99.00-99.00-99.00-99.00
  102.-99.00-99.00-99.00-99.00
  124.-99.00-99.00-99.00-99.00
  137.-99.00-99.00-99.00-99.00
  156.-99.00-99.00-99.00-99.00
  176.-99.00-99.00-99.00-99.00
  200.-99.00-99.00-99.00-99.00
*CULTIVAR           
IB0033 A 193 (hab 2)    ANDIND 12.17 0.040 30.00  4.00 11.60 18.40 12.00 0.950 285.0 140.0  1.00 0.500 19.00  3.50 10.00  78.0 0.235 0.030
