*MODEL INPUT FILE            B     1     1     1   999     0
*FILES              
MODEL          MLCER048
FILEX          ITSC8601.MLX                                                                                 
FILEA          ITSC8601.MLA                                                                                 
FILET          ITSC8601.MLT                                                                                 
SPECIES        MLCER048.SPE C:\DSSAT48\GENOTYPE\                                                            
ECOTYPE        MLCER048.ECO C:\DSSAT48\GENOTYPE\                                                            
CULTIVAR       MLCER048.CUL C:\DSSAT48\GENOTYPE\                                                            
PESTS          MLCER048.PST C:\DSSAT48\PEST\                                                                
SOILS          SOIL.SOL     C:\DSSAT48\SOIL\                                                                
WEATHERW       ITSC8601.WTH C:\DSSAT48\Weather\                                                             
OUTPUT         OVERVIEW
*SIMULATION CONTROL 
                   1     1     S 1986161  2150 ICRISAT SAHELIAN CENTRE, 
                   Y     Y     N     N     N     N     N     N     M
                   M     M     E     R     S     C     R     1     G     R     2     D     0
                   R     N     R     N     M
                   N     Y     Y     1     Y     N     Y     Y     N     N     Y     N     N
!AUTOMATIC MANAGEM  
                   -99     -99   40.  100.   30.   40.   10.
                 30.   50.  100. GS000 IR001  10.0 1.000
                 30.   50.   25. FE001 GS000
                100.     1   20.
                     0     -99  100.    0.
*EXP.DETAILS        
  1ITSC8601 ML ICRISAT SAHELIAN CENTRE, SADORE                             
*TREATMENTS         
  1 1 0 0 NO FERT: WATER BALANCE   
*CULTIVARS          
   ML IB0044 CIVT            
*FIELDS             
   ITSC0001 ITSC8601   0.0    0. DR000    0. 100.0 00000 -99    210. IBML910001-99.00 -99.0
      0.0000000000    0.0000000000     0.000               1.0  100.   1.0   0.0   -99   -99
*INITIAL CONDITIONS 
   ML    1986161   100     0  1.00  1.00 -99.0    50  0.50  0.00  100.   10.
      5. 0.031 0.500  8.80
     15. 0.031 0.500  8.00
     30. 0.037 0.500  5.00
     45. 0.037 0.500  4.00
     60. 0.037 0.500  2.00
     90. 0.040 0.500 0.800
    120. 0.037 0.500 0.500
    150. 0.037 0.500 0.500
    180. 0.037 0.500 0.500
    210. 0.034 0.500 0.500
*PLANTING DETAILS   
   1986168     -99   3.0   3.0     S     R  100.    0.   5.0  -99.  -99. -99.0 -99.0   0.0
*IRRIGATION         
   1.000    0.    0.    0. GS000 IR001   0.0
*FERTILIZERS        
*RESIDUES           
*CHEMICALS          
*TILLAGE            
*ENVIRONMENT        
*HARVEST            
*SOIL               
 IBML910001  IBSNAT      -99    210.   Niger Sandy Soil                                
 -99         Niger        -0.009  -0.099 NIGER SANDY SOIL                                  
 -99    0.14  10.0  0.80   76.  0.35  0.70 IB001 IB001 IB001 -99  
    5.       0.031 0.097 0.320 1.000  -99.  1.61 0.500 -99.0 -99.0 -99.0  -9.0  5.50-99.00-99.00-99.00
   15.       0.031 0.097 0.320 1.000  -99.  1.61 0.500 -99.0 -99.0 -99.0  -9.0  5.50-99.00-99.00-99.00
   30.       0.037 0.119 0.331 0.800  -99.  1.66 0.500 -99.0 -99.0 -99.0  -9.0  5.50-99.00-99.00-99.00
   45.       0.037 0.117 0.332 0.600  -99.  1.54 0.500 -99.0 -99.0 -99.0  -9.0  5.50-99.00-99.00-99.00
   60.       0.037 0.117 0.332 0.400  -99.  1.54 0.500 -99.0 -99.0 -99.0  -9.0  5.50-99.00-99.00-99.00
   90.       0.040 0.126 0.331 0.010  -99.  1.57 0.500 -99.0 -99.0 -99.0  -9.0  5.50-99.00-99.00-99.00
  120.       0.037 0.117 0.331 0.010  -99.  1.55 0.500 -99.0 -99.0 -99.0  -9.0  5.50-99.00-99.00-99.00
  150.       0.037 0.119 0.330 0.010  -99.  1.64 0.500 -99.0 -99.0 -99.0  -9.0  5.50-99.00-99.00-99.00
  180.       0.037 0.119 0.331 0.010  -99.  1.58 0.500 -99.0 -99.0 -99.0  -9.0  5.50-99.00-99.00-99.00
  210.       0.034 0.108 0.324 0.010  -99.  1.60 0.500 -99.0 -99.0 -99.0  -9.0  5.50-99.00-99.00-99.00
                    
    5.-99.00 -99.0 -99.0 -99.0 -99.0 -99.0 -99.0 -99.0 -99.0 -99.0-99.00 -99.0 -99.0 -99.0 -99.0 -99.0  -99.  -99.
   15.-99.00 -99.0 -99.0 -99.0 -99.0 -99.0 -99.0 -99.0 -99.0 -99.0-99.00 -99.0 -99.0 -99.0 -99.0 -99.0  -99.  -99.
   30.-99.00 -99.0 -99.0 -99.0 -99.0 -99.0 -99.0 -99.0 -99.0 -99.0-99.00 -99.0 -99.0 -99.0 -99.0 -99.0  -99.  -99.
   45.-99.00 -99.0 -99.0 -99.0 -99.0 -99.0 -99.0 -99.0 -99.0 -99.0-99.00 -99.0 -99.0 -99.0 -99.0 -99.0  -99.  -99.
   60.-99.00 -99.0 -99.0 -99.0 -99.0 -99.0 -99.0 -99.0 -99.0 -99.0-99.00 -99.0 -99.0 -99.0 -99.0 -99.0  -99.  -99.
   90.-99.00 -99.0 -99.0 -99.0 -99.0 -99.0 -99.0 -99.0 -99.0 -99.0-99.00 -99.0 -99.0 -99.0 -99.0 -99.0  -99.  -99.
  120.-99.00 -99.0 -99.0 -99.0 -99.0 -99.0 -99.0 -99.0 -99.0 -99.0-99.00 -99.0 -99.0 -99.0 -99.0 -99.0  -99.  -99.
  150.-99.00 -99.0 -99.0 -99.0 -99.0 -99.0 -99.0 -99.0 -99.0 -99.0-99.00 -99.0 -99.0 -99.0 -99.0 -99.0  -99.  -99.
  180.-99.00 -99.0 -99.0 -99.0 -99.0 -99.0 -99.0 -99.0 -99.0 -99.0-99.00 -99.0 -99.0 -99.0 -99.0 -99.0  -99.  -99.
  210.-99.00 -99.0 -99.0 -99.0 -99.0 -99.0 -99.0 -99.0 -99.0 -99.0-99.00 -99.0 -99.0 -99.0 -99.0 -99.0  -99.  -99.
                    
    5.-99.00-99.00-99.00-99.00
   15.-99.00-99.00-99.00-99.00
   30.-99.00-99.00-99.00-99.00
   45.-99.00-99.00-99.00-99.00
   60.-99.00-99.00-99.00-99.00
   90.-99.00-99.00-99.00-99.00
  120.-99.00-99.00-99.00-99.00
  150.-99.00-99.00-99.00-99.00
  180.-99.00-99.00-99.00-99.00
  210.-99.00-99.00-99.00-99.00
*CULTIVAR           
IB0044 CIVT             IB0001  100.0 14.54 338.1 569.8  1.60  0.50 43.00    1.   11.
