*MODEL INPUT FILE            B     1     1     1   999     0
*FILES              
MODEL          SWCER048
FILEX          UFCI0401.SWX                                                                                 
FILEA          UFCI0401.SWA                                                                                 
FILET          UFCI0401.SWT                                                                                 
SPECIES        SWCER048.SPE C:\DSSAT48\GENOTYPE\                                                            
ECOTYPE        SWCER048.ECO C:\DSSAT48\GENOTYPE\                                                            
CULTIVAR       SWCER048.CUL C:\DSSAT48\GENOTYPE\                                                            
PESTS          SWCER048.PST C:\DSSAT48\PEST\                                                                
SOILS          SOIL.SOL     C:\DSSAT48\SOIL\                                                                
WEATHERW       UFCI0401.WTH C:\DSSAT48\Weather\                                                             
OUTPUT         OVERVIEW
*SIMULATION CONTROL 
                   1     1     S 2004001  2150 DEFAULT SIMULATION CONTR 
                   Y     Y     N     N     N     N     N     Y     M
                   M     M     E     R     S     R     R     1     G     R     2     D     0
                   R     R     R     R     R
                   N     Y     Y     1     Y     Y     Y     Y     Y     Y     Y     Y     Y
!AUTOMATIC MANAGEM  
                   -99     -99   40.  100.   30.   40.   10.
                 30.   90.  100. GS000 IR004  10.0 1.000
                 30.   50.   25. FE001 GS000
                100.     1   20.
                     0     -99  100.    0.
*EXP.DETAILS        
  1UFCI0401 SW 2004 MICROWEX 2                                             
*TREATMENTS         
  1 1 1 0 100% N                   
*CULTIVARS          
   SW SW0002 Saturn sh2      
*FIELDS             
   PINEACRE UFCI0401   0.0  -99. DR000  -99. 100.0     0 S      180. IBMZ910214-99.00 -99.0
     29.4099998474  -82.1800003052    21.000               1.0   99.  99.0  99.0   -99   -99
*INITIAL CONDITIONS 
   SB    2004077     0     0  1.00  1.00 -99.0     0  0.00  0.00  100.    0.
      5. 0.210 0.300  2.30
     15. 0.210 0.300  2.30
     30. 0.210 0.300  2.30
     45. 0.210 0.300  2.30
     60. 0.210 0.300  2.30
     90. 0.210 0.300  2.30
    120. 0.210 0.300  2.30
    150. 0.210 0.300  2.30
    180. 0.210 0.300  2.30
*PLANTING DETAILS   
   2004078     -99 -99.0   6.1     S     R   76.  -99.   4.0  -99.  -99. -99.0 -99.0 -99.0
*IRRIGATION         
   1.000   30.   75.  -99. GS000 IR001   0.0
   2004078 IR004  17.8
   2004083 IR004  12.7
   2004089 IR004  12.7
   2004091 IR004  12.7
   2004093 IR004  12.7
   2004097 IR004  12.7
   2004098 IR004   2.5
   2004106 IR004   2.5
   2004109 IR004  12.7
   2004111 IR004   2.5
   2004112 IR004   2.5
   2004114 IR004  12.7
   2004118 IR004   6.4
   2004119 IR004  12.7
   2004125 IR004   2.5
   2004127 IR004   2.5
   2004129 IR004  15.2
   2004132 IR004  15.2
   2004133 IR004   5.1
   2004135 IR004  15.2
   2004139 IR004  15.2
   2004140 IR004   3.8
   2004142 IR004  15.2
   2004145 IR004  20.3
   2004147 IR004  20.3
   2004148 IR004   2.5
   2004149 IR004  20.3
   2004151 IR004  20.3
   2004153 IR004  20.3
*FERTILIZERS        
   2004078 FE010 AP005    0.   31.  -99.  -99.  -99.  -99.   -99
   2004098 FE010 AP005    0.   31.  -99.  -99.  -99.  -99.   -99
   2004106 FE010 AP005    0.   16.  -99.  -99.  -99.  -99.   -99
   2004111 FE010 AP005    0.   16.  -99.  -99.  -99.  -99.   -99
   2004112 FE010 AP005    0.   40.  -99.  -99.  -99.  -99.   -99
   2004118 FE010 AP005    0.   30.  -99.  -99.  -99.  -99.   -99
   2004125 FE010 AP005    0.   10.  -99.  -99.  -99.  -99.   -99
   2004126 FE010 AP005    0.   10.  -99.  -99.  -99.  -99.   -99
   2004133 FE010 AP005    0.   14.  -99.  -99.  -99.  -99.   -99
   2004140 FE010 AP005    0.   40.  -99.  -99.  -99.  -99.   -99
   2004147 FE010 AP005    0.   14.  -99.  -99.  -99.  -99.   -99
*RESIDUES           
*CHEMICALS          
*TILLAGE            
*ENVIRONMENT        
*HARVEST            
   2004154 GS000     H     A  100.  100.
*SOIL               
 IBMZ910214  Gainesville S      180.   Millhopper Fine Sand                            
 Gainesville USA          29.600 -82.370 Loamy,silic,hyperth Arenic Paleudult              
 -99    0.18   2.0  0.65   60.  1.00  0.92 IB001 IB001 IB001 -99  
    5.       0.026 0.096 0.345 1.000  7.40  1.66 0.670   1.7   0.9   0.0  -9.0  7.00-99.00 20.00-99.00
   15.       0.025 0.105 0.345 1.000  7.40  1.66 0.670   1.7   0.9   0.0  -9.0  7.00-99.00-99.00-99.00
   30.       0.075 0.120 0.345 0.700  14.8  1.66 0.170   2.4   2.6   0.0  -9.0  7.00-99.00-99.00-99.00
   45.       0.025 0.086 0.345 0.300  3.70  1.66 0.170   2.4   2.6   0.0  -9.0  7.00-99.00-99.00-99.00
   60.       0.025 0.072 0.345 0.300  3.70  1.66 0.170   2.4   2.6   0.0  -9.0  7.00-99.00-99.00-99.00
   90.       0.028 0.072 0.345 0.100  3.70  1.66 0.170   2.4   2.6   0.0  -9.0  7.00-99.00-99.00-99.00
  120.       0.028 0.080 0.345 0.100 0.100  1.66 0.180   7.7   3.1   0.0  -9.0  7.00-99.00-99.00-99.00
  150.       0.029 0.090 0.345 0.050 0.100  1.66 0.150   7.7   3.1   0.0  -9.0  7.00-99.00-99.00-99.00
  180.       0.029 0.090 0.345 0.050 0.100  1.66 0.100   7.7   3.1   0.0  -9.0  7.00-99.00-99.00-99.00
                    
    5.-99.00 -99.0 -99.0 -99.0 -99.0 -99.0 -99.0 -99.0 -99.0 -99.0-99.00 -99.0 -99.0 -99.0 -99.0 -99.0  -99.  -99.
   15.-99.00 -99.0 -99.0 -99.0 -99.0 -99.0 -99.0 -99.0 -99.0 -99.0-99.00 -99.0 -99.0 -99.0 -99.0 -99.0  -99.  -99.
   30.-99.00 -99.0 -99.0 -99.0 -99.0 -99.0 -99.0 -99.0 -99.0 -99.0-99.00 -99.0 -99.0 -99.0 -99.0 -99.0  -99.  -99.
   45.-99.00 -99.0 -99.0 -99.0 -99.0 -99.0 -99.0 -99.0 -99.0 -99.0-99.00 -99.0 -99.0 -99.0 -99.0 -99.0  -99.  -99.
   60.-99.00 -99.0 -99.0 -99.0 -99.0 -99.0 -99.0 -99.0 -99.0 -99.0-99.00 -99.0 -99.0 -99.0 -99.0 -99.0  -99.  -99.
   90.-99.00 -99.0 -99.0 -99.0 -99.0 -99.0 -99.0 -99.0 -99.0 -99.0-99.00 -99.0 -99.0 -99.0 -99.0 -99.0  -99.  -99.
  120.-99.00 -99.0 -99.0 -99.0 -99.0 -99.0 -99.0 -99.0 -99.0 -99.0-99.00 -99.0 -99.0 -99.0 -99.0 -99.0  -99.  -99.
  150.-99.00 -99.0 -99.0 -99.0 -99.0 -99.0 -99.0 -99.0 -99.0 -99.0-99.00 -99.0 -99.0 -99.0 -99.0 -99.0  -99.  -99.
  180.-99.00 -99.0 -99.0 -99.0 -99.0 -99.0 -99.0 -99.0 -99.0 -99.0-99.00 -99.0 -99.0 -99.0 -99.0 -99.0  -99.  -99.
                    
    5.-99.00-99.00-99.00-99.00
   15.-99.00-99.00-99.00-99.00
   30.-99.00-99.00-99.00-99.00
   45.-99.00-99.00-99.00-99.00
   60.-99.00-99.00-99.00-99.00
   90.-99.00-99.00-99.00-99.00
  120.-99.00-99.00-99.00-99.00
  150.-99.00-99.00-99.00-99.00
  180.-99.00-99.00-99.00-99.00
*CULTIVAR           
SW0002 Saturn sh2       IB0001  180.0 0.300 738.0 850.0 15.00 35.00
