*MODEL INPUT FILE            B     1     1     1   999     0
*FILES              
MODEL          CRGRO048
FILEX          UFQU7902.SBX                                                                                 
FILEA          UFQU7902.SBA                                                                                 
FILET          UFQU7902.SBT                                                                                 
SPECIES        SBGRO048.SPE C:\DSSAT48\GENOTYPE\                                                            
ECOTYPE        SBGRO048.ECO C:\DSSAT48\GENOTYPE\                                                            
CULTIVAR       SBGRO048.CUL C:\DSSAT48\GENOTYPE\                                                            
PESTS          SBGRO048.PST C:\DSSAT48\PEST\                                                                
SOILS          SOIL.SOL     C:\DSSAT48\SOIL\                                                                
WEATHERW       UFQU7901.WTH C:\DSSAT48\Weather\                                                             
OUTPUT         OVERVIEW
*SIMULATION CONTROL 
                   1     1     S 1979176  2150 BRAGG, WELL IRRIGATED    
                   N     N     N     N     N     Y     N     N     M
                   M     M     E     R     S     L     R     1     G     R     2     D     0
                   R     N     N     N     M
                   N     Y     Y     1     Y     N     Y     Y     N     Y     Y     N     N
!AUTOMATIC MANAGEM  
                   -99     -99   40.  100.   30.   40.   10.
                 30.   50.  100. GS000 IR001  10.0 0.750
                 30.   50.   25. FE001 GS000
                100.     1   20.
                     0     -99  100.    0.
*EXP.DETAILS        
  1UFQU7902 SB BRAGG, DEFOLIATION STUDY                                    
*TREATMENTS         
  1 1 0 0 NO WATER STRESS          
*CULTIVARS          
   SB IB0001 BRAGG           
*FIELDS             
   UFQU0001 UFQU7901   0.0    0. DR000    0. 100.0 00000 SALO   203. IBSB910017-99.00 -99.0
      0.0000000000    0.0000000000     0.000               1.0  100.   1.0   0.0   -99   -99
*INITIAL CONDITIONS 
   SB    1979176     1     0  1.00  1.00 -99.0     0  0.00  0.00    0.    0.
      5. 0.198   0.0   0.0
     15. 0.198   0.0   0.0
     25. 0.198   0.0   0.0
     34. 0.226   0.0   0.0
     43. 0.226   0.0   0.0
     53. 0.250   0.0   0.0
     64. 0.250   0.0   0.0
     83. 0.281   0.0   0.0
    102. 0.281   0.0   0.0
    123. 0.291   0.0   0.0
    145. 0.291   0.0   0.0
    175. 0.272   0.0   0.0
    203. 0.263   0.0   0.0
*PLANTING DETAILS   
   1979176     -99  21.5  21.5     S     R   91.    0.   4.0  -99.  -99. -99.0 -99.0   0.0
*IRRIGATION         
   1.000    0.    0.    0. GS000 IR001   0.0
*FERTILIZERS        
*RESIDUES           
*CHEMICALS          
*TILLAGE            
*ENVIRONMENT        
*HARVEST            
*SOIL               
 IBSB910017  SCS         SALO   203.   Orangeburg Sandy Loam                           
 Quincy      USA          30.000 -86.400 Loamy,silic,hyperth Gross. Paleud(17)             
 -99    0.13   9.0  0.27   84.  1.00  0.97 IB001 IB001 IB001 -99  
    5.       0.125 0.198 0.294 1.000  -99.  1.49 1.730 -99.0 -99.0 -99.0 -99.0-99.00-99.00-99.00-99.00
   15.       0.125 0.198 0.294 0.874  -99.  1.49 1.730 -99.0 -99.0 -99.0 -99.0-99.00-99.00-99.00-99.00
   25.       0.125 0.198 0.294 0.874  -99.  1.49 1.730 -99.0 -99.0 -99.0 -99.0-99.00-99.00-99.00-99.00
   34.       0.117 0.226 0.323 0.351  -99.  1.41 0.400 -99.0 -99.0 -99.0 -99.0-99.00-99.00-99.00-99.00
   43.       0.117 0.226 0.323 0.351  -99.  1.41 0.400 -99.0 -99.0 -99.0 -99.0-99.00-99.00-99.00-99.00
   53.       0.138 0.250 0.332 0.310  -99.  1.44 0.200 -99.0 -99.0 -99.0 -99.0-99.00-99.00-99.00-99.00
   64.       0.138 0.250 0.332 0.310  -99.  1.44 0.200 -99.0 -99.0 -99.0 -99.0-99.00-99.00-99.00-99.00
   83.       0.167 0.281 0.331 0.302  -99.  1.57 0.140 -99.0 -99.0 -99.0 -99.0-99.00-99.00-99.00-99.00
  102.       0.167 0.281 0.331 0.302  -99.  1.57 0.140 -99.0 -99.0 -99.0 -99.0-99.00-99.00-99.00-99.00
  123.       0.182 0.291 0.334 0.077  -99.  1.59 0.160 -99.0 -99.0 -99.0 -99.0-99.00-99.00-99.00-99.00
  145.       0.182 0.291 0.334 0.077  -99.  1.59 0.160 -99.0 -99.0 -99.0 -99.0-99.00-99.00-99.00-99.00
  175.       0.162 0.272 0.320 0.036  -99.  1.61 0.090 -99.0 -99.0 -99.0 -99.0-99.00-99.00-99.00-99.00
  203.       0.154 0.263 0.319 0.006  -99.  1.58 0.030 -99.0 -99.0 -99.0 -99.0-99.00-99.00-99.00-99.00
                    
    5.-99.00 -99.0 -99.0 -99.0 -99.0 -99.0 -99.0 -99.0 -99.0 -99.0-99.00 -99.0 -99.0 -99.0 -99.0 -99.0  -99.  -99.
   15.-99.00 -99.0 -99.0 -99.0 -99.0 -99.0 -99.0 -99.0 -99.0 -99.0-99.00 -99.0 -99.0 -99.0 -99.0 -99.0  -99.  -99.
   25.-99.00 -99.0 -99.0 -99.0 -99.0 -99.0 -99.0 -99.0 -99.0 -99.0-99.00 -99.0 -99.0 -99.0 -99.0 -99.0  -99.  -99.
   34.-99.00 -99.0 -99.0 -99.0 -99.0 -99.0 -99.0 -99.0 -99.0 -99.0-99.00 -99.0 -99.0 -99.0 -99.0 -99.0  -99.  -99.
   43.-99.00 -99.0 -99.0 -99.0 -99.0 -99.0 -99.0 -99.0 -99.0 -99.0-99.00 -99.0 -99.0 -99.0 -99.0 -99.0  -99.  -99.
   53.-99.00 -99.0 -99.0 -99.0 -99.0 -99.0 -99.0 -99.0 -99.0 -99.0-99.00 -99.0 -99.0 -99.0 -99.0 -99.0  -99.  -99.
   64.-99.00 -99.0 -99.0 -99.0 -99.0 -99.0 -99.0 -99.0 -99.0 -99.0-99.00 -99.0 -99.0 -99.0 -99.0 -99.0  -99.  -99.
   83.-99.00 -99.0 -99.0 -99.0 -99.0 -99.0 -99.0 -99.0 -99.0 -99.0-99.00 -99.0 -99.0 -99.0 -99.0 -99.0  -99.  -99.
  102.-99.00 -99.0 -99.0 -99.0 -99.0 -99.0 -99.0 -99.0 -99.0 -99.0-99.00 -99.0 -99.0 -99.0 -99.0 -99.0  -99.  -99.
  123.-99.00 -99.0 -99.0 -99.0 -99.0 -99.0 -99.0 -99.0 -99.0 -99.0-99.00 -99.0 -99.0 -99.0 -99.0 -99.0  -99.  -99.
  145.-99.00 -99.0 -99.0 -99.0 -99.0 -99.0 -99.0 -99.0 -99.0 -99.0-99.00 -99.0 -99.0 -99.0 -99.0 -99.0  -99.  -99.
  175.-99.00 -99.0 -99.0 -99.0 -99.0 -99.0 -99.0 -99.0 -99.0 -99.0-99.00 -99.0 -99.0 -99.0 -99.0 -99.0  -99.  -99.
  203.-99.00 -99.0 -99.0 -99.0 -99.0 -99.0 -99.0 -99.0 -99.0 -99.0-99.00 -99.0 -99.0 -99.0 -99.0 -99.0  -99.  -99.
                    
    5.-99.00-99.00-99.00-99.00
   15.-99.00-99.00-99.00-99.00
   25.-99.00-99.00-99.00-99.00
   34.-99.00-99.00-99.00-99.00
   43.-99.00-99.00-99.00-99.00
   53.-99.00-99.00-99.00-99.00
   64.-99.00-99.00-99.00-99.00
   83.-99.00-99.00-99.00-99.00
  102.-99.00-99.00-99.00-99.00
  123.-99.00-99.00-99.00-99.00
  145.-99.00-99.00-99.00-99.00
  175.-99.00-99.00-99.00-99.00
  203.-99.00-99.00-99.00-99.00
*CULTIVAR           
IB0001 BRAGG            SB0701 12.33 0.320 19.50 10.00 15.20 37.60 19.00 1.000 355.0 170.0  1.00 0.170 24.00  2.00 10.00  78.0 0.400 0.200
