*MODEL INPUT FILE            B     1     1     1   999     0
*FILES              
MODEL          CSYCA048
FILEX          CCPA7901.CSX                                                                                 
FILEA          CCPA7901.CSA                                                                                 
FILET          CCPA7901.CST                                                                                 
SPECIES        CSYCA048.SPE C:\DSSAT48\GENOTYPE\                                                            
ECOTYPE        CSYCA048.ECO C:\DSSAT48\GENOTYPE\                                                            
CULTIVAR       CSYCA048.CUL C:\DSSAT48\GENOTYPE\                                                            
PESTS          CSYCA048.PST C:\DSSAT48\PEST\                                                                
SOILS          SOIL.SOL     C:\DSSAT48\SOIL\                                                                
WEATHERW       CCPA7901.WTH C:\DSSAT48\Weather\                                                             
OUTPUT         OVERVIEW
*SIMULATION CONTROL 
                   1     1     P 1979194  2150 Cultivars  4C  (Veltkam2 
                   Y     N     N     N     N     N     N     Y     M
                   M     M     E     H     S     V     R     1     G     R     2     D     0
                   R     N     N     N     R
                   N     Y     Y     1     Y     N     Y     Y     N     N     Y     N     N
!AUTOMATIC MANAGEM  
                   -99     -99   40.  100.   30.   40.   10.
                 30.   50.  100. IB001 IBI01  10.0 1.000
                 30.   50.   25. IB001 IB001
                100.     1   20.
                     0     -99  100.    0.
*EXP.DETAILS        
  1CCPA7901 CS 1979 FOUR CULTIVARS                                         
*TREATMENTS         
  1 1 0 0 C1 MCol-1684             
*CULTIVARS          
   CS UC0006 MCol-1684       
*FIELDS             
   CIAT0001 CCPA7901   0.0  -99.   -99  -99. 100.0   -99 -99    209. CCPA000030-99.00 -99.0
      0.0000000000    0.0000000000     0.000               1.0  100.   1.0   0.0   -99   -99
*INITIAL CONDITIONS 
   99    1978194   -99     0  1.00  1.00 -99.0     0  0.00  0.00  100.   15.
      5. 0.340   0.0   0.0
     15. 0.340   0.0   0.0
     25. 0.345   0.0   0.0
     35. 0.345   0.0   0.0
     50. 0.335   0.0   0.0
     65. 0.323   0.0   0.0
     80. 0.323   0.0   0.0
     99. 0.328   0.0   0.0
    122. 0.325   0.0   0.0
    137. 0.288   0.0   0.0
    159. 0.242   0.0   0.0
    184. 0.177   0.0   0.0
    209. 0.193   0.0   0.0
*PLANTING DETAILS   
   1979194     -99   1.0   1.0     V     R  100.   90.  20.0  450.  -99. -99.0   1.0  25.0
*IRRIGATION         
   1.000    0.    0.    0. GS000 IR001   0.0
*FERTILIZERS        
*RESIDUES           
*CHEMICALS          
*TILLAGE            
*ENVIRONMENT        
*HARVEST            
   1980007 GS000   -99   -99  100.    0.
*SOIL               
 CCPA000030  Veltkamp    -99    209.   Silty Clay Loam                                 
 Palmira     Colombia      3.500  76.350 Fine-silty, mixed, isohyperth. Aquic Hapludoll    
 -99    0.09  11.0  0.40   84.  1.00  1.00 IB001 IB001 IB001 -99  
    5.       0.204 0.340 0.392 1.000  -99.  1.45 2.190 -99.0 -99.0 -99.0  -9.0  6.90-99.00-99.00-99.00
   15.       0.204 0.340 0.392 1.000  -99.  1.45 2.190 -99.0 -99.0 -99.0  -9.0  6.90-99.00-99.00-99.00
   25.       0.209 0.345 0.390 0.750  -99.  1.45 1.210 -99.0 -99.0 -99.0  -9.0  7.20-99.00-99.00-99.00
   35.       0.209 0.345 0.390 0.500  -99.  1.45 1.210 -99.0 -99.0 -99.0  -9.0  7.20-99.00-99.00-99.00
   50.       0.198 0.335 0.390 0.350  -99.  1.49 0.530 -99.0 -99.0 -99.0  -9.0  8.00-99.00-99.00-99.00
   65.       0.185 0.323 0.395 0.200  -99.  1.58 0.200 -99.0 -99.0 -99.0  -9.0  8.20-99.00-99.00-99.00
   80.       0.185 0.323 0.395 0.150  -99.  1.58 0.200 -99.0 -99.0 -99.0  -9.0  8.20-99.00-99.00-99.00
   99.       0.201 0.328 0.408 0.100  -99.  1.54 0.100 -99.0 -99.0 -99.0  -9.0  8.10-99.00-99.00-99.00
  122.       0.198 0.325 0.410 0.050  -99.  1.58 0.090 -99.0 -99.0 -99.0  -9.0  8.20-99.00-99.00-99.00
  137.       0.159 0.288 0.399 0.000  -99.  1.50 0.090 -99.0 -99.0 -99.0  -9.0  8.30-99.00-99.00-99.00
  159.       0.110 0.242 0.402 0.000  -99.  1.69 0.100 -99.0 -99.0 -99.0  -9.0  8.30-99.00-99.00-99.00
  184.       0.047 0.177 0.351 0.000  -99.  1.59 0.080 -99.0 -99.0 -99.0  -9.0  8.00-99.00-99.00-99.00
  209.       0.050 0.193 0.410 0.000  -99.  1.45 0.120 -99.0 -99.0 -99.0  -9.0  8.50-99.00-99.00-99.00
                    
    5.-99.00 -99.0 -99.0 -99.0 -99.0 -99.0 -99.0 -99.0 -99.0 -99.0-99.00 -99.0 -99.0 -99.0 -99.0 -99.0  -99.  -99.
   15.-99.00 -99.0 -99.0 -99.0 -99.0 -99.0 -99.0 -99.0 -99.0 -99.0-99.00 -99.0 -99.0 -99.0 -99.0 -99.0  -99.  -99.
   25.-99.00 -99.0 -99.0 -99.0 -99.0 -99.0 -99.0 -99.0 -99.0 -99.0-99.00 -99.0 -99.0 -99.0 -99.0 -99.0  -99.  -99.
   35.-99.00 -99.0 -99.0 -99.0 -99.0 -99.0 -99.0 -99.0 -99.0 -99.0-99.00 -99.0 -99.0 -99.0 -99.0 -99.0  -99.  -99.
   50.-99.00 -99.0 -99.0 -99.0 -99.0 -99.0 -99.0 -99.0 -99.0 -99.0-99.00 -99.0 -99.0 -99.0 -99.0 -99.0  -99.  -99.
   65.-99.00 -99.0 -99.0 -99.0 -99.0 -99.0 -99.0 -99.0 -99.0 -99.0-99.00 -99.0 -99.0 -99.0 -99.0 -99.0  -99.  -99.
   80.-99.00 -99.0 -99.0 -99.0 -99.0 -99.0 -99.0 -99.0 -99.0 -99.0-99.00 -99.0 -99.0 -99.0 -99.0 -99.0  -99.  -99.
   99.-99.00 -99.0 -99.0 -99.0 -99.0 -99.0 -99.0 -99.0 -99.0 -99.0-99.00 -99.0 -99.0 -99.0 -99.0 -99.0  -99.  -99.
  122.-99.00 -99.0 -99.0 -99.0 -99.0 -99.0 -99.0 -99.0 -99.0 -99.0-99.00 -99.0 -99.0 -99.0 -99.0 -99.0  -99.  -99.
  137.-99.00 -99.0 -99.0 -99.0 -99.0 -99.0 -99.0 -99.0 -99.0 -99.0-99.00 -99.0 -99.0 -99.0 -99.0 -99.0  -99.  -99.
  159.-99.00 -99.0 -99.0 -99.0 -99.0 -99.0 -99.0 -99.0 -99.0 -99.0-99.00 -99.0 -99.0 -99.0 -99.0 -99.0  -99.  -99.
  184.-99.00 -99.0 -99.0 -99.0 -99.0 -99.0 -99.0 -99.0 -99.0 -99.0-99.00 -99.0 -99.0 -99.0 -99.0 -99.0  -99.  -99.
  209.-99.00 -99.0 -99.0 -99.0 -99.0 -99.0 -99.0 -99.0 -99.0 -99.0-99.00 -99.0 -99.0 -99.0 -99.0 -99.0  -99.  -99.
                    
    5.-99.00-99.00-99.00-99.00
   15.-99.00-99.00-99.00-99.00
   25.-99.00-99.00-99.00-99.00
   35.-99.00-99.00-99.00-99.00
   50.-99.00-99.00-99.00-99.00
   65.-99.00-99.00-99.00-99.00
   80.-99.00-99.00-99.00-99.00
   99.-99.00-99.00-99.00-99.00
  122.-99.00-99.00-99.00-99.00
  137.-99.00-99.00-99.00-99.00
  159.-99.00-99.00-99.00-99.00
  184.-99.00-99.00-99.00-99.00
  209.-99.00-99.00-99.00-99.00
*CULTIVAR           
