*MODEL INPUT FILE            B     1     1     1   999     0
*FILES              
MODEL          PTSUB048
FILEX          CPSR1302.PTX                                                                                 
FILEA          CPSR1302.PTA                                                                                 
FILET          CPSR1302.PTT                                                                                 
SPECIES        PTSUB048.SPE C:\DSSAT48\GENOTYPE\                                                            
ECOTYPE        PTSUB048.ECO C:\DSSAT48\GENOTYPE\                                                            
CULTIVAR       PTSUB048.CUL C:\DSSAT48\GENOTYPE\                                                            
PESTS          PTSUB048.PST C:\DSSAT48\PEST\                                                                
SOILS          CP.SOL       C:\DSSAT48\SOIL\                                                                
WEATHERW       CPSR1301.WTH C:\DSSAT48\Weather\                                                             
OUTPUT         OVERVIEW
*SIMULATION CONTROL 
                   1     1     S 2013213  2150 DEFAULT SIMULATION CONTR 
                   Y     Y     N     N     N     N     N     Y     M
                   M     M     E     R     S     C     R     1     P     R     2     D     0
                   R     A     R     R     R
                   N     Y     A     1     Y     Y     Y     Y     Y     Y     A     Y     Y
!AUTOMATIC MANAGEM  
                   -99     -99   40.  100.   30.   40.   10.
                 30.   50.  100. GS000 IR001  10.0 1.000
                 30.   50.   25. FE001 GS000
                100.     1   20.
                     0     -99  100.    0.
*EXP.DETAILS        
  1CPSR1302 PT CIP 2013 3 CULTIVARS                                        
*TREATMENTS         
  1 1 1 0 Achirana                 
*CULTIVARS          
   PT AR0003 ACHIRANA        
*FIELDS             
   CPSR1302 CPSR1301   0.0  -99.   -99  -99. 100.0   -99 L      -99. CPSR000022-99.00 -99.0
    -75.3563919067  -11.1274995804   830.000               1.0  100.   1.0 -99.0   -99   -99
*INITIAL CONDITIONS 
   99    2013213     0     0  1.00  1.00 -99.0     0  0.00  0.00  100.    0.
      5. 0.128 0.800  6.80
     15. 0.128 0.800  6.80
     30. 0.128 0.800  6.80
     45. 0.139 0.800  6.80
     60. 0.139 0.800  6.80
     90. 0.155 0.800  6.80
*PLANTING DETAILS   
   2013213 2013228   3.3   3.3     S     9  100.  -99.   5.0  444.  -99. -99.0 -99.0   2.0
*IRRIGATION         
   1.000   30.   75.  -99. GS000 IR001   0.0
   2013213 IR004  15.0
   2013219 IR004  39.0
   2013225 IR004  29.0
   2013228 IR004  30.0
   2013232 IR004  29.0
   2013236 IR004  30.0
   2013241 IR004  16.0
   2013249 IR004  15.0
   2013255 IR004  40.0
   2013258 IR004  28.0
   2013262 IR004  31.0
   2013267 IR004  31.0
   2013271 IR004  30.0
   2013277 IR004  31.0
   2013285 IR004  33.0
   2013292 IR004  22.0
*FERTILIZERS        
   2013213 FE005 AP004    5.  150.  -99.  -99.  -99.  -99.   -99
   2013213 FE013 AP004    5.    0.  300.  -99.  -99.  -99.   -99
   2013213 FE016 AP004    5.    0.  -99.  265.  -99.  -99.   -99
   2013253 FE005 AP004    5.  150.  -99.  -99.  -99.  -99.   -99
*RESIDUES           
*CHEMICALS          
*TILLAGE            
*ENVIRONMENT        
*HARVEST            
   2013318 GS000   -99   -99  100.    0.
*SOIL               
 CPSR000022  UNALM       L      -99.   Silty loam                                      
 -99         -99          -0.099  -0.099 -99                                               
 -99    0.13   1.0  0.50   76.  1.00  0.70 -99   -99     -99 -99  
    5.       0.104 0.199 0.408 1.000  2.59  1.50 0.480  13.0  22.0 -99.0 0.040  5.50-99.00  8.00-99.00
   15.       0.104 0.199 0.408 1.000  2.59  1.50 0.480  13.0  22.0 -99.0 0.040  5.50-99.00  8.00-99.00
   30.       0.104 0.199 0.408 1.000  2.59  1.50 0.481  13.0  22.0 -99.0  -9.0  5.50-99.00  8.00-99.00
   45.       0.118 0.203 0.388 0.407  2.59  1.40 0.278  21.0  18.0 -99.0  -9.0  5.70-99.00  9.90-99.00
   60.       0.118 0.203 0.388 0.407  2.59  1.40 0.278  21.0  18.0 -99.0  -9.0  5.70-99.00  9.90-99.00
   90.       0.136 0.212 0.379 0.223 0.430  1.50 0.180  17.0  14.0 -99.0  -9.0  5.50-99.00  9.30-99.00
                    
    5.-99.00 -99.0 -99.0 -99.0 -99.0 -99.0 -99.0 -99.0 -99.0 -99.0  5.90 -99.0 -99.0 -99.0 -99.0 -99.0  -99.  -99.
   15.-99.00 -99.0 -99.0 -99.0 -99.0 -99.0 -99.0 -99.0 -99.0 -99.0  5.90 -99.0 -99.0 -99.0 -99.0 -99.0  -99.  -99.
   30.-99.00 -99.0 -99.0 -99.0 -99.0 -99.0 -99.0 -99.0 -99.0 -99.0-99.00 -99.0 -99.0 -99.0 -99.0 -99.0  -99.  -99.
   45.-99.00 -99.0 -99.0 -99.0 -99.0 -99.0 -99.0 -99.0 -99.0 -99.0-99.00 -99.0 -99.0 -99.0 -99.0 -99.0  -99.  -99.
   60.-99.00 -99.0 -99.0 -99.0 -99.0 -99.0 -99.0 -99.0 -99.0 -99.0-99.00 -99.0 -99.0 -99.0 -99.0 -99.0  -99.  -99.
   90.-99.00 -99.0 -99.0 -99.0 -99.0 -99.0 -99.0 -99.0 -99.0 -99.0-99.00 -99.0 -99.0 -99.0 -99.0 -99.0  -99.  -99.
                    
    5.-99.00-99.00-99.00-99.00
   15.-99.00-99.00-99.00-99.00
   30.-99.00-99.00-99.00-99.00
   45.-99.00-99.00-99.00-99.00
   60.-99.00-99.00-99.00-99.00
   90.-99.00-99.00-99.00-99.00
*CULTIVAR           
AR0003 ACHIRANA         IB0001  1564.  21.0   0.5   0.4  21.1
