*MODEL INPUT FILE            B     1     1     1   999     0
*FILES              
MODEL          CRGRO048
FILEX          NOTH1401.CNX                                                                                 
FILEA          NOTH1401.CNA                                                                                 
FILET          NOTH1401.CNT                                                                                 
SPECIES        CNGRO048.SPE C:\DSSAT48\GENOTYPE\                                                            
ECOTYPE        CNGRO048.ECO C:\DSSAT48\GENOTYPE\                                                            
CULTIVAR       CNGRO048.CUL C:\DSSAT48\GENOTYPE\                                                            
PESTS          CNGRO048.PST C:\DSSAT48\PEST\                                                                
SOILS          NO.SOL       C:\DSSAT48\SOIL\                                                                
WEATHERW       NOTH1401.WTH C:\DSSAT48\Weather\                                                             
OUTPUT         OVERVIEW
*SIMULATION CONTROL 
                   1     0     S 2014125  3517 Rapeseed                 
                   Y     Y     N     N     N     N     N     Y     D
                   M     M     E     R     R     L     R     1     G     R     1     D     0
                   R     N     R     A     M
                   N     Y     Y     1     Y     Y     Y     Y     Y     Y     Y     Y     Y
!AUTOMATIC MANAGEM  
                   -99     -99   40.  100.   30.   40.   10.
                 30.   50.  100. GS000 IR001  10.0 1.000
                 30.   50.   25. FE001 GS000
                100.     1   20.
                     0     -99  100.    0.
*EXP.DETAILS        
  1NOTH1401 CN 2014 Nitrogen Rapeseed, West Nipissing, Ontario             
*TREATMENTS         
  1 1 1 0 Sim-0N                   
*CULTIVARS          
   CN CA0001 Invigor5440     
*FIELDS             
   VERNER1  NOTH1401   0.0  -99. DR000  -99. 100.0   -99 LO     100. NOTH030001-99.00 -99.0
    -99.0000000000  -99.0000000000   -99.000               1.0  100.   1.0 -99.0   -99   -99
*INITIAL CONDITIONS 
   SB    2014125  2000     0  1.00  1.00 -99.0     0  1.00  0.00  100.    0.
      5. 0.378 0.300  7.40
     15. 0.378 0.300  7.40
     30. 0.359 0.300  7.40
     45. 0.318 0.300  7.40
     60. 0.310 0.300  7.40
     80. 0.310 0.300  7.40
    100. 0.310 0.300  7.40
*PLANTING DETAILS   
   2014150     -99  62.0  62.0     S     R   20.  -99.   1.5  -99.  -99. -99.0 -99.0 -99.0
*IRRIGATION         
   1.000    0.    0.    0. GS000 IR001   0.0
*FERTILIZERS        
   2014150 FE011 AP002    8.    4.  -99.  -99.  -99.  -99.   -99
*RESIDUES           
*CHEMICALS          
*TILLAGE            
*ENVIRONMENT        
*HARVEST            
*SOIL               
 NOTH030001  Verner  CL  LO     100. North Bay                                         
 Verner      Canada       -0.099  -0.099 GL   HG    O                                      
 -99    0.13  10.0  0.40   74.  1.00  1.00 IB001 IB001 IB001 -99  
    5.       0.153 0.378 0.521 1.000 0.680  1.40 2.100  14.0  67.0   0.0  -9.0  6.90-99.00 26.00-99.00
   15.       0.153 0.378 0.521 1.000 0.680  1.40 2.100  14.0  67.0   0.0  -9.0  6.90-99.00 26.00-99.00
   30.       0.142 0.359 0.481 0.841 0.680  1.37 1.500  15.0  70.3   0.0  -9.0  6.93-99.00 23.33-99.00
   45.       0.116 0.318 0.375 0.430 0.680  1.50 0.267  16.7  76.7   0.0  -9.0  7.03-99.00 17.33-99.00
   60.       0.111 0.310 0.321 0.247 0.680  1.50 0.200  16.0  76.0   0.0  -9.0  7.10-99.00 16.00-99.00
   80.       0.111 0.310 0.321 0.247 0.680  1.50 0.200  16.0  76.0   0.0  -9.0  7.10-99.00 16.00-99.00
  100.       0.111 0.310 0.321 0.247 0.680  1.50 0.200  16.0  76.0   0.0  -9.0  7.10-99.00 16.00-99.00
                    
    5.-99.00 -99.0 -99.0 -99.0 -99.0 -99.0 -99.0 -99.0 -99.0 -99.0-99.00 -99.0 -99.0 -99.0 -99.0 -99.0  -99.  -99.
   15.-99.00 -99.0 -99.0 -99.0 -99.0 -99.0 -99.0 -99.0 -99.0 -99.0-99.00 -99.0 -99.0 -99.0 -99.0 -99.0  -99.  -99.
   30.-99.00 -99.0 -99.0 -99.0 -99.0 -99.0 -99.0 -99.0 -99.0 -99.0-99.00 -99.0 -99.0 -99.0 -99.0 -99.0  -99.  -99.
   45.-99.00 -99.0 -99.0 -99.0 -99.0 -99.0 -99.0 -99.0 -99.0 -99.0-99.00 -99.0 -99.0 -99.0 -99.0 -99.0  -99.  -99.
   60.-99.00 -99.0 -99.0 -99.0 -99.0 -99.0 -99.0 -99.0 -99.0 -99.0-99.00 -99.0 -99.0 -99.0 -99.0 -99.0  -99.  -99.
   80.-99.00 -99.0 -99.0 -99.0 -99.0 -99.0 -99.0 -99.0 -99.0 -99.0-99.00 -99.0 -99.0 -99.0 -99.0 -99.0  -99.  -99.
  100.-99.00 -99.0 -99.0 -99.0 -99.0 -99.0 -99.0 -99.0 -99.0 -99.0-99.00 -99.0 -99.0 -99.0 -99.0 -99.0  -99.  -99.
                    
    5.-99.00-99.00-99.00-99.00
   15.-99.00-99.00-99.00-99.00
   30.-99.00-99.00-99.00-99.00
   45.-99.00-99.00-99.00-99.00
   60.-99.00-99.00-99.00-99.00
   80.-99.00-99.00-99.00-99.00
  100.-99.00-99.00-99.00-99.00
*CULTIVAR           
CA0001 Invigor5440      CN0001 16.00-0.011 28.50 13.00 19.00 26.50  3.00 1.280 300.0 100.0  1.00 0.003 20.00 22.00 10.00  81.0 0.230 0.480
