*MODEL INPUT FILE            B     1     1     1   999     0
*FILES              
MODEL          CRGRO048
FILEX          UFMA8301.PNX                                                                                 
FILEA          UFMA8301.PNA                                                                                 
FILET          UFMA8301.PNT                                                                                 
SPECIES        PNGRO048.SPE C:\DSSAT48\GENOTYPE\                                                            
ECOTYPE        PNGRO048.ECO C:\DSSAT48\GENOTYPE\                                                            
CULTIVAR       PNGRO048.CUL C:\DSSAT48\GENOTYPE\                                                            
PESTS          PNGRO048.PST C:\DSSAT48\PEST\                                                                
SOILS          SOIL.SOL     C:\DSSAT48\SOIL\                                                                
WEATHERW       UFMA8301.WTH C:\DSSAT48\Weather\                                                             
OUTPUT         OVERVIEW
*SIMULATION CONTROL 
                   1     1     S 1983124  2150 IRRIGATED, FLORUNNER, DI 
                   Y     Y     Y     N     N     N     N     N     M
                   M     M     E     R     S     L     R     1     G     R     2     D     0
                   R     R     R     R     M
                   N     Y     Y     1     Y     Y     Y     Y     N     N     Y     N     N
!AUTOMATIC MANAGEM  
                   -99     -99   40.  100.   30.   40.   10.
                 30.   50.  100. IB001 IB001  10.0 0.750
                 30.   50.   25. IB001 IB001
                100.     1   20.
                     0     -99  100.    0.
*EXP.DETAILS        
  1UFMA8301 PN 1983 DISEASE STUDY, 4 CULTIVARS, IRRIGATED                  
*TREATMENTS         
  1 1 1 0 83 FLORUNNER             
*CULTIVARS          
   PN IB0002 FLORUNNER       
*FIELDS             
   UFMA0001 UFMA8301   0.0    0. DR000    0. 100.0 00000 L      229. IBPN910025-99.00 -99.0
    -99.0000000000  -99.0000000000   -99.000               1.0  100.   1.0 -99.0   -99   -99
*INITIAL CONDITIONS 
   PN    1983124   100     0  1.00  1.00 -99.0     0  0.00  0.00  100.    0.
      5. 0.249 0.600  1.50
     15. 0.249 0.600  1.50
     25. 0.249 0.600  1.50
     39. 0.303 0.600  1.50
     52. 0.303 0.600  1.50
     66. 0.303 0.600  1.50
     91. 0.329 0.600 0.600
    109. 0.333 0.600 0.500
    127. 0.333 0.600 0.500
    142. 0.339 0.600 0.500
    157. 0.316 0.600 0.500
    173. 0.316 0.600 0.500
*PLANTING DETAILS   
   1983125     -99  11.0  11.0     S     R   91.    0.   4.0  -99.  -99. -99.0 -99.0 -99.0
*IRRIGATION         
   0.750   30.   75.  -99. GS000 IR001   0.0
   1983126 IR001  12.0
   1983136 IR001  12.0
   1983147 IR001  15.0
   1983152 IR001  12.0
   1983168 IR001  16.0
   1983193 IR001  19.0
   1983202 IR001  12.0
   1983205 IR001  15.0
   1983224 IR001  22.0
   1983229 IR001  22.0
   1983235 IR001  22.0
   1983241 IR001  22.0
*FERTILIZERS        
*RESIDUES           
   1983124 RE001  1000  0.80  0.00  0.00  100.   15.   -99
*CHEMICALS          
*TILLAGE            
*ENVIRONMENT        
*HARVEST            
     83256 GS000   -99   -99  100.    0.
*SOIL               
 IBPN910025  NRCS-USDA   L      229.   Norfolk Sandy Loam                              
 Mobile      US           30.900 -88.034 Unclassified                                      
 BN     0.13   6.0  0.60   61.  1.00  0.92 IB001 IB001 IB001 -99  
    5.       0.101 0.249 0.498 1.000  1.32  1.24 1.160   8.6  41.5 -99.0  -9.0  6.00-99.00  7.90-99.00
   15.       0.101 0.249 0.498 1.000  1.32  1.24 1.160   8.6  41.5 -99.0  -9.0  6.00-99.00  7.90-99.00
   25.       0.101 0.249 0.498 1.000  1.32  1.24 1.160   8.6  41.5 -99.0  -9.0  6.00-99.00  7.90-99.00
   39.       0.173 0.303 0.439 0.403 0.230  1.42 0.300  27.8  36.9 -99.0  -9.0  6.50-99.00  8.60-99.00
   52.       0.173 0.303 0.439 0.403 0.230  1.42 0.300  27.8  36.9 -99.0  -9.0  6.50-99.00  8.60-99.00
   66.       0.173 0.303 0.439 0.403 0.230  1.42 0.300  27.8  36.9 -99.0  -9.0  6.50-99.00  8.60-99.00
   91.       0.203 0.329 0.444 0.208 0.230  1.41 0.130  34.7  35.3 -99.0  -9.0  4.70-99.00 12.10-99.00
  109.       0.212 0.333 0.437 0.113 0.230  1.43 0.070  36.8  33.0 -99.0  -9.0  4.90-99.00 13.90-99.00
  127.       0.212 0.333 0.437 0.113 0.230  1.43 0.070  36.8  33.0 -99.0  -9.0  4.90-99.00 13.90-99.00
  142.       0.214 0.339 0.444 0.068 0.230  1.41 0.130  36.8  34.1 -99.0  -9.0  4.90-99.00 13.60-99.00
  157.       0.205 0.316 0.422 0.043 0.230  1.47 0.070  35.5  28.1 -99.0  -9.0  4.70-99.00 12.80-99.00
  173.       0.205 0.316 0.422 0.043 0.230  1.47 0.070  35.5  28.1 -99.0  -9.0  4.70-99.00 12.80-99.00
                    
    5.-99.00 -99.0 -99.0 -99.0 -99.0 -99.0 -99.0 -99.0 -99.0 -99.0-99.00 -99.0 -99.0 -99.0 -99.0 -99.0  -99.  -99.
   15.-99.00 -99.0 -99.0 -99.0 -99.0 -99.0 -99.0 -99.0 -99.0 -99.0-99.00 -99.0 -99.0 -99.0 -99.0 -99.0  -99.  -99.
   25.-99.00 -99.0 -99.0 -99.0 -99.0 -99.0 -99.0 -99.0 -99.0 -99.0-99.00 -99.0 -99.0 -99.0 -99.0 -99.0  -99.  -99.
   39.-99.00 -99.0 -99.0 -99.0 -99.0 -99.0 -99.0 -99.0 -99.0 -99.0-99.00 -99.0 -99.0 -99.0 -99.0 -99.0  -99.  -99.
   52.-99.00 -99.0 -99.0 -99.0 -99.0 -99.0 -99.0 -99.0 -99.0 -99.0-99.00 -99.0 -99.0 -99.0 -99.0 -99.0  -99.  -99.
   66.-99.00 -99.0 -99.0 -99.0 -99.0 -99.0 -99.0 -99.0 -99.0 -99.0-99.00 -99.0 -99.0 -99.0 -99.0 -99.0  -99.  -99.
   91.-99.00 -99.0 -99.0 -99.0 -99.0 -99.0 -99.0 -99.0 -99.0 -99.0-99.00 -99.0 -99.0 -99.0 -99.0 -99.0  -99.  -99.
  109.-99.00 -99.0 -99.0 -99.0 -99.0 -99.0 -99.0 -99.0 -99.0 -99.0-99.00 -99.0 -99.0 -99.0 -99.0 -99.0  -99.  -99.
  127.-99.00 -99.0 -99.0 -99.0 -99.0 -99.0 -99.0 -99.0 -99.0 -99.0-99.00 -99.0 -99.0 -99.0 -99.0 -99.0  -99.  -99.
  142.-99.00 -99.0 -99.0 -99.0 -99.0 -99.0 -99.0 -99.0 -99.0 -99.0-99.00 -99.0 -99.0 -99.0 -99.0 -99.0  -99.  -99.
  157.-99.00 -99.0 -99.0 -99.0 -99.0 -99.0 -99.0 -99.0 -99.0 -99.0-99.00 -99.0 -99.0 -99.0 -99.0 -99.0  -99.  -99.
  173.-99.00 -99.0 -99.0 -99.0 -99.0 -99.0 -99.0 -99.0 -99.0 -99.0-99.00 -99.0 -99.0 -99.0 -99.0 -99.0  -99.  -99.
                    
    5.-99.00-99.00-99.00-99.00
   15.-99.00-99.00-99.00-99.00
   25.-99.00-99.00-99.00-99.00
   39.-99.00-99.00-99.00-99.00
   52.-99.00-99.00-99.00-99.00
   66.-99.00-99.00-99.00-99.00
   91.-99.00-99.00-99.00-99.00
  109.-99.00-99.00-99.00-99.00
  127.-99.00-99.00-99.00-99.00
  142.-99.00-99.00-99.00-99.00
  157.-99.00-99.00-99.00-99.00
  173.-99.00-99.00-99.00-99.00
*CULTIVAR           
IB0002 FLORUNNER        PN0001 11.84 0.000 21.20  9.20 18.80 74.30 88.00 1.400 260.0  18.0  0.92 0.690 40.00  1.65 24.00  80.0 0.270 0.510
