*MODEL INPUT FILE            B     1     1     1   999     0
*FILES              
MODEL          CRGRO048
FILEX          ITBP8401.CHX                                                                                 
FILEA          ITBP8401.CHA                                                                                 
FILET          ITBP8401.CHT                                                                                 
SPECIES        CHGRO048.SPE C:\DSSAT48\GENOTYPE\                                                            
ECOTYPE        CHGRO048.ECO C:\DSSAT48\GENOTYPE\                                                            
CULTIVAR       CHGRO048.CUL C:\DSSAT48\GENOTYPE\                                                            
PESTS          CHGRO048.PST C:\DSSAT48\PEST\                                                                
SOILS          IC.SOL       C:\DSSAT48\SOIL\                                                                
WEATHERW       ITHY8401.WTH C:\DSSAT48\Weather\                                                             
OUTPUT         OVERVIEW
*SIMULATION CONTROL 
                   1     1     S 1984299  2150 LIGHT AND WATER USE EFFI 
                   Y     Y     Y     N     N     N     N     Y     M
                   M     M     E     R     S     L     R     1     G     R     2     D     0
                   R     R     R     R     M
                   N     Y     Y     3     Y     Y     Y     Y     N     N     Y     N     N
!AUTOMATIC MANAGEM  
                   -99     -99   40.  100.   30.   40.   10.
                 30.   50.  100. GS000 IR001  10.0 1.000
                 30.   50.   25. FE001 GS000
                100.     1   20.
                     0     -99  100.    0.
*EXP.DETAILS        
  1ITBP8401 CH IRRIGATION * CULTIVARS; 1984 BP 12 FIELD                    
*TREATMENTS         
  1 1 0 0 UI IRRIGATION; ANNIGERI  
*CULTIVARS          
   CH IB0001 ANNIGERI v48cali
*FIELDS             
   ITBP0001 ITHY8401   0.0    0. DR000    0. 100.0 00000 -99    180. ICCH910005-99.00 -99.0
      0.0000000000    0.0000000000     0.000               1.0  100.   1.0   0.0   -99   -99
*INITIAL CONDITIONS 
   PN    1984307   100     0  1.00  1.00 -99.0  1000  0.53  0.00    0.   15.
      5. 0.303   0.0   0.0
     15. 0.356   0.0   0.0
     20. 0.356   0.0   0.0
     30. 0.284   0.0   0.0
     40. 0.303   0.0   0.0
     50. 0.316   0.0   0.0
     60. 0.329   0.0   0.0
     75. 0.343   0.0   0.0
     90. 0.300   0.0   0.0
    110. 0.303   0.0   0.0
    130. 0.230   0.0   0.0
    155. 0.223   0.0   0.0
    180. 0.223   0.0   0.0
*PLANTING DETAILS   
   1984309     -99  30.0  30.0     S     R   30.    0.   5.0  -99.  -99. -99.0 -99.0   0.0
*IRRIGATION         
   1.000   30.   75.  -99. GS000 IR001  10.0
   1984313 IR001  30.0
   1984321 IR001  15.0
*FERTILIZERS        
   1984299 FE006   001    5.   18.  -99.  -99.  -99.  -99.   -99
*RESIDUES           
*CHEMICALS          
*TILLAGE            
*ENVIRONMENT        
*HARVEST            
*SOIL               
 ICCH910005  IBSNAT      -99    180. VERY FINE MONTMORILLONITIC ISOHYPERTHERMIC        
 Patancheru  India        -0.099  -0.099 Vertisol                                          
 -99    0.13   6.0  0.70   85.  1.00  0.90 SA001 SA001 SA001 -99  
    5.       0.265 0.337 0.395 1.000  -99.  1.50 0.730 -99.0 -99.0 -99.0  -9.0  8.80-99.00-99.00  0.00
   15.       0.200 0.337 0.395 1.000  -99.  1.50 0.730 -99.0 -99.0 -99.0  -9.0  8.80-99.00-99.00  0.00
   20.       0.200 0.337 0.395 1.000  -99.  1.50 0.730 -99.0 -99.0 -99.0  -9.0  8.80-99.00-99.00  0.00
   30.       0.159 0.309 0.407 0.638  -99.  1.51 0.540 -99.0 -99.0 -99.0  -9.0  9.20-99.00-99.00  0.00
   40.       0.154 0.310 0.407 0.472  -99.  1.51 0.540 -99.0 -99.0 -99.0  -9.0  9.20-99.00-99.00  0.00
   50.       0.161 0.307 0.416 0.410  -99.  1.37 0.470 -99.0 -99.0 -99.0  -9.0  9.40-99.00-99.00  0.00
   60.       0.155 0.300 0.416 0.350  -99.  1.37 0.470 -99.0 -99.0 -99.0  -9.0  9.40-99.00-99.00  0.00
   75.       0.165 0.292 0.424 0.285  -99.  1.38 0.390 -99.0 -99.0 -99.0  -9.0  9.40-99.00-99.00  0.00
   90.       0.165 0.262 0.424 0.223  -99.  1.38 0.390 -99.0 -99.0 -99.0  -9.0  9.40-99.00-99.00  0.00
  110.       0.167 0.225 0.451 0.170  -99.  1.40 0.280 -99.0 -99.0 -99.0  -9.0  9.40-99.00-99.00  0.00
  130.       0.160 0.222 0.451 0.120  -99.  1.40 0.280 -99.0 -99.0 -99.0  -9.0  9.40-99.00-99.00  0.00
  155.       0.160 0.222 0.443 0.067  -99.  1.40 0.250 -99.0 -99.0 -99.0  -9.0  9.40-99.00-99.00  0.00
  180.       0.165 0.222 0.443 0.037  -99.  1.40 0.250 -99.0 -99.0 -99.0  -9.0  9.40-99.00-99.00  0.00
                    
    5.-99.00 -99.0 -99.0 -99.0 -99.0 -99.0 -99.0 -99.0 -99.0 -99.0-99.00 -99.0 -99.0 -99.0 -99.0 -99.0  -99.  -99.
   15.-99.00 -99.0 -99.0 -99.0 -99.0 -99.0 -99.0 -99.0 -99.0 -99.0-99.00 -99.0 -99.0 -99.0 -99.0 -99.0  -99.  -99.
   20.-99.00 -99.0 -99.0 -99.0 -99.0 -99.0 -99.0 -99.0 -99.0 -99.0-99.00 -99.0 -99.0 -99.0 -99.0 -99.0  -99.  -99.
   30.-99.00 -99.0 -99.0 -99.0 -99.0 -99.0 -99.0 -99.0 -99.0 -99.0-99.00 -99.0 -99.0 -99.0 -99.0 -99.0  -99.  -99.
   40.-99.00 -99.0 -99.0 -99.0 -99.0 -99.0 -99.0 -99.0 -99.0 -99.0-99.00 -99.0 -99.0 -99.0 -99.0 -99.0  -99.  -99.
   50.-99.00 -99.0 -99.0 -99.0 -99.0 -99.0 -99.0 -99.0 -99.0 -99.0-99.00 -99.0 -99.0 -99.0 -99.0 -99.0  -99.  -99.
   60.-99.00 -99.0 -99.0 -99.0 -99.0 -99.0 -99.0 -99.0 -99.0 -99.0-99.00 -99.0 -99.0 -99.0 -99.0 -99.0  -99.  -99.
   75.-99.00 -99.0 -99.0 -99.0 -99.0 -99.0 -99.0 -99.0 -99.0 -99.0-99.00 -99.0 -99.0 -99.0 -99.0 -99.0  -99.  -99.
   90.-99.00 -99.0 -99.0 -99.0 -99.0 -99.0 -99.0 -99.0 -99.0 -99.0-99.00 -99.0 -99.0 -99.0 -99.0 -99.0  -99.  -99.
  110.-99.00 -99.0 -99.0 -99.0 -99.0 -99.0 -99.0 -99.0 -99.0 -99.0-99.00 -99.0 -99.0 -99.0 -99.0 -99.0  -99.  -99.
  130.-99.00 -99.0 -99.0 -99.0 -99.0 -99.0 -99.0 -99.0 -99.0 -99.0-99.00 -99.0 -99.0 -99.0 -99.0 -99.0  -99.  -99.
  155.-99.00 -99.0 -99.0 -99.0 -99.0 -99.0 -99.0 -99.0 -99.0 -99.0-99.00 -99.0 -99.0 -99.0 -99.0 -99.0  -99.  -99.
  180.-99.00 -99.0 -99.0 -99.0 -99.0 -99.0 -99.0 -99.0 -99.0 -99.0-99.00 -99.0 -99.0 -99.0 -99.0 -99.0  -99.  -99.
                    
    5.-99.00-99.00-99.00-99.00
   15.-99.00-99.00-99.00-99.00
   20.-99.00-99.00-99.00-99.00
   30.-99.00-99.00-99.00-99.00
   40.-99.00-99.00-99.00-99.00
   50.-99.00-99.00-99.00-99.00
   60.-99.00-99.00-99.00-99.00
   75.-99.00-99.00-99.00-99.00
   90.-99.00-99.00-99.00-99.00
  110.-99.00-99.00-99.00-99.00
  130.-99.00-99.00-99.00-99.00
  155.-99.00-99.00-99.00-99.00
  180.-99.00-99.00-99.00-99.00
*CULTIVAR           
IB0001 ANNIGERI v48cali DESI   11.00-0.143 32.00  7.50 18.50 31.00 42.00 0.950 200.0  10.0  0.95 0.230 22.00  1.20 17.00  82.0 0.216 0.048
