*MODEL INPUT FILE            B     1     1     1   999     0
*FILES              
MODEL          CRGRO048
FILEX          UFGA8601.BNX                                                                                 
FILEA          UFGA8601.BNA                                                                                 
FILET          UFGA8601.BNT                                                                                 
SPECIES        BNGRO048.SPE C:\DSSAT48\GENOTYPE\                                                            
ECOTYPE        BNGRO048.ECO C:\DSSAT48\GENOTYPE\                                                            
CULTIVAR       BNGRO048.CUL C:\DSSAT48\GENOTYPE\                                                            
PESTS          BNGRO048.PST C:\DSSAT48\PEST\                                                                
SOILS          SOIL.SOL     C:\DSSAT48\SOIL\                                                                
WEATHERW       UFGA8601.WTH C:\DSSAT48\Weather\                                                             
OUTPUT         OVERVIEW
*SIMULATION CONTROL 
                   1     1     S 1986084  2150 2 CULTIVARS, 5 IRRIGATIO 
                   Y     Y     Y     N     N     N     N     N     M
                   M     M     E     R     S     L     R     1     G     R     2     D     0
                   R     R     R     R     M
                   N     Y     Y     1     Y     Y     Y     Y     N     N     Y     N     N
!AUTOMATIC MANAGEM  
                   -99     -99   40.  100.   30.   40.   10.
                 30.   50.  100. GS000 IR001  10.0 0.750
                 30.   50.   25. FE001 GS000
                100.     1   20.
                     0     -99  100.    0.
*EXP.DETAILS        
  1UFGA8601 BN 2 CULTIVARS, 5 IRRIGATION TREATMENTS                        
*TREATMENTS         
  1 1 0 0 PORRILLO SINTETICO DAILY 
*CULTIVARS          
   BN IB0001 Porrillo Sinteti
*FIELDS             
   UFGA0001 UFGA8601   0.0    0. DR000    0. 100.0 00000 VFSA   180. IBBN910015-99.00 -99.0
      0.0000000000    0.0000000000     0.000               1.0  100.   1.0   0.0   -99   -99
*INITIAL CONDITIONS 
   BN    1986084     1     0  1.00  1.00   0.0     0  0.00  0.00  100.   15.
      5. 0.086 0.600  1.50
     15. 0.086 0.600  1.50
     30. 0.086 0.600  1.50
     45. 0.086 0.600  1.50
     60. 0.086 0.600  1.50
     90. 0.076 0.600 0.600
    120. 0.076 0.600 0.500
    150. 0.130 0.600 0.500
    180. 0.258 0.600 0.500
*PLANTING DETAILS   
   1986084     -99  32.3  32.3     S     R   61.    0.   2.0  -99.  -99. -99.0 -99.0   0.0
*IRRIGATION         
   0.750   30.   75.  -99. GS000 IR001   0.0
   1986085 IR001   6.0
   1986087 IR001   6.0
   1986090 IR001   7.0
   1986092 IR001   6.0
   1986094 IR001  12.0
   1986098 IR001  10.0
   1986101 IR001  10.0
   1986106 IR001  10.0
   1986108 IR001  12.0
   1986111 IR001  12.0
   1986115 IR001  21.0
   1986118 IR001  19.0
   1986121 IR001  30.0
   1986122 IR001   7.0
   1986123 IR001  10.0
   1986124 IR001   2.0
   1986125 IR001  19.0
   1986126 IR001  10.0
   1986127 IR001  10.0
   1986128 IR001  10.0
   1986129 IR001  10.0
   1986130 IR001  10.0
   1986131 IR001  10.0
   1986132 IR001  11.0
   1986133 IR001  10.0
   1986134 IR001  10.0
   1986135 IR001  10.0
   1986136 IR001  10.0
   1986137 IR001  10.0
   1986138 IR001  10.0
   1986139 IR001  10.0
   1986142 IR001  10.0
   1986143 IR001  10.0
   1986144 IR001  10.0
   1986145 IR001  10.0
   1986146 IR001  10.0
   1986147 IR001  10.0
   1986148 IR001  10.0
   1986149 IR001  10.0
   1986150 IR001  10.0
   1986151 IR001  10.0
   1986152 IR001  10.0
   1986153 IR001  10.0
   1986154 IR001   6.0
   1986155 IR001  10.0
   1986156 IR001  10.0
   1986157 IR001  10.0
   1986159 IR001  20.0
   1986162 IR001  20.0
*FERTILIZERS        
*RESIDUES           
*CHEMICALS          
*TILLAGE            
*ENVIRONMENT        
*HARVEST            
*SOIL               
 IBBN910015  SCS         VFSA   180.   Millhopper Fine Sand                            
 Gainesville USA          29.600 -82.370 Loamy,silic,hyperth Gross. Paleudults             
 -99    0.18   5.0  0.50   66.  1.00  0.92 IB001 IB001 IB001 -99  
    5.       0.023 0.086 0.230 1.000  7.40  1.47 0.900   0.9  11.8 -99.0  -9.0  5.30-99.00-99.00-99.00
   15.       0.023 0.086 0.230 1.000  7.40  1.47 0.690   0.9  11.8 -99.0  -9.0  5.40-99.00-99.00-99.00
   30.       0.023 0.086 0.230 0.900  15.8  1.41 0.280   4.6   6.4 -99.0  -9.0  5.70-99.00-99.00-99.00
   45.       0.023 0.086 0.230 0.700  28.0  1.43 0.200   5.8   5.4 -99.0  -9.0  5.80-99.00-99.00-99.00
   60.       0.023 0.086 0.230 0.500  28.0  1.43 0.200   5.8   5.4 -99.0  -9.0  5.80-99.00-99.00-99.00
   90.       0.021 0.076 0.230 0.200  27.6  1.52 0.090   9.6   4.2 -99.0  -9.0  5.90-99.00-99.00-99.00
  120.       0.020 0.076 0.230 0.100  17.5  1.52 0.030   9.6   4.2 -99.0  -9.0  5.90-99.00-99.00-99.00
  150.       0.027 0.130 0.230 0.050 0.300  1.46 0.030   8.3   3.6 -99.0  -9.0  5.90-99.00-99.00-99.00
  180.       0.070 0.258 0.360 0.000 0.100  1.46 0.030   8.3   3.6 -99.0  -9.0  5.90-99.00-99.00-99.00
                    
    5.-99.00 -99.0 -99.0 -99.0 -99.0 -99.0 -99.0 -99.0 -99.0 -99.0-99.00 -99.0 -99.0 -99.0 -99.0 -99.0  -99.  -99.
   15.-99.00 -99.0 -99.0 -99.0 -99.0 -99.0 -99.0 -99.0 -99.0 -99.0-99.00 -99.0 -99.0 -99.0 -99.0 -99.0  -99.  -99.
   30.-99.00 -99.0 -99.0 -99.0 -99.0 -99.0 -99.0 -99.0 -99.0 -99.0-99.00 -99.0 -99.0 -99.0 -99.0 -99.0  -99.  -99.
   45.-99.00 -99.0 -99.0 -99.0 -99.0 -99.0 -99.0 -99.0 -99.0 -99.0-99.00 -99.0 -99.0 -99.0 -99.0 -99.0  -99.  -99.
   60.-99.00 -99.0 -99.0 -99.0 -99.0 -99.0 -99.0 -99.0 -99.0 -99.0-99.00 -99.0 -99.0 -99.0 -99.0 -99.0  -99.  -99.
   90.-99.00 -99.0 -99.0 -99.0 -99.0 -99.0 -99.0 -99.0 -99.0 -99.0-99.00 -99.0 -99.0 -99.0 -99.0 -99.0  -99.  -99.
  120.-99.00 -99.0 -99.0 -99.0 -99.0 -99.0 -99.0 -99.0 -99.0 -99.0-99.00 -99.0 -99.0 -99.0 -99.0 -99.0  -99.  -99.
  150.-99.00 -99.0 -99.0 -99.0 -99.0 -99.0 -99.0 -99.0 -99.0 -99.0-99.00 -99.0 -99.0 -99.0 -99.0 -99.0  -99.  -99.
  180.-99.00 -99.0 -99.0 -99.0 -99.0 -99.0 -99.0 -99.0 -99.0 -99.0-99.00 -99.0 -99.0 -99.0 -99.0 -99.0  -99.  -99.
                    
    5.-99.00-99.00-99.00-99.00
   15.-99.00-99.00-99.00-99.00
   30.-99.00-99.00-99.00-99.00
   45.-99.00-99.00-99.00-99.00
   60.-99.00-99.00-99.00-99.00
   90.-99.00-99.00-99.00-99.00
  120.-99.00-99.00-99.00-99.00
  150.-99.00-99.00-99.00-99.00
  180.-99.00-99.00-99.00-99.00
*CULTIVAR           
IB0001 Porrillo Sinteti MESIND 13.50 0.017 31.20  3.00  8.00 20.50 21.00 1.000 300.0 150.0  1.00 0.240 21.00  5.20 11.50  78.0 0.235 0.030
