*MODEL INPUT FILE            B     1     1     1   999     0
*FILES              
MODEL          CRGRO048
FILEX          PARA1801.SBX                                                                                 
FILEA          PARA1801.SBA                                                                                 
FILET          PARA1801.SBT                                                                                 
SPECIES        SBGRO048.SPE C:\DSSAT48\GENOTYPE\                                                            
ECOTYPE        SBGRO048.ECO C:\DSSAT48\GENOTYPE\                                                            
CULTIVAR       SBGRO048.CUL C:\DSSAT48\GENOTYPE\                                                            
PESTS          SBGRO048.PST C:\DSSAT48\PEST\                                                                
SOILS          BR.SOL       C:\DSSAT48\SOIL\                                                                
WEATHERW       PARA1801.WTH C:\DSSAT48\Weather\                                                             
OUTPUT         OVERVIEW
*SIMULATION CONTROL 
                   1     1     S 2018001  2150 Calibration              
                   Y     Y     Y     N     N     N     N     N     M
                   M     M     E     R     R     L     R     1     G     R     2     D     0
                   R     R     R     R     M
                   N     Y     Y     1     Y     Y     Y     Y     Y     N     Y     N     Y
!AUTOMATIC MANAGEM  
                   -99     -99   40.  100.   30.   40.   10.
                 30.   70.  100. GS000 IR004  10.0 1.000
                 30.   50.   25. FE001 GS000
                100.     1   20.
                     0     -99  100.    0.
*EXP.DETAILS        
  1PARA1801 SB PLANT DENSITIES FOR MATURITY GROUPS IN LOW LATITUDE, BRAZIL 
*TREATMENTS         
  1 1 1 0 MG77_PD10_Jan06 - CAL    
*CULTIVARS          
   SB RB0002 MG77PA (13)     
*FIELDS             
   00002018 PARA1801   0.0  -99. DR000  -99. 100.0   -99 C      230. BRPA080004-99.00 -99.0
    -47.0000000000   -3.0000000000   170.000               1.0  100.   1.0 -99.0   -99   -99
*INITIAL CONDITIONS 
   99    2018001     0     0  1.00  1.00 230.0     0  0.00  0.00  100.    0.
      5. 0.414 0.100 0.500
     15. 0.404 0.100 0.500
     30. 0.262 0.100 0.500
     40. 0.253 0.100 0.500
     50. 0.253 0.100 0.500
     60. 0.261 0.100 0.500
     70. 0.261 0.100 0.500
    100. 0.256 0.100 0.500
    125. 0.256 0.100 0.500
    150. 0.256 0.100 0.500
    160. 0.434 0.010 0.010
    230. 0.434 0.010 0.010
    300. 0.434 0.010 0.010
*PLANTING DETAILS   
   2018006 2018010  10.0  10.0     S     R   50.  -99.   5.0  -99.  -99. -99.0 -99.0 -99.0
*IRRIGATION         
   1.000    0.    0.    0. GS000 IR001   0.0
*FERTILIZERS        
   2018006 FE007 AP003   10.   23.   98.  -99.  -99.  -99.   -99
*RESIDUES           
*CHEMICALS          
*TILLAGE            
*ENVIRONMENT        
*HARVEST            
*SOIL               
 BRPA080004  UFRA        C      230.   Oxisol                                          
 Paragominas Brazil       -0.003  -0.047     Oxisols                                       
 Y      0.17   6.0  0.40   73.  1.00  1.00 IB001 SA005 SA013 -99  
    5.       0.240 0.488 0.582 1.000 0.500  0.90 1.180  77.0  12.4 -99.0 0.100  5.80-99.00  7.90-99.00
   15.       0.250 0.455 0.553 1.000 0.500  1.00  43.6  78.0  12.7 -99.0 0.070  5.55-99.00  7.90-99.00
   30.       0.301 0.457 0.502 0.420 0.500  0.97  29.0  84.1  11.4 -99.0 0.033  5.03-99.00  7.50-99.00
   40.       0.307 0.434 0.489 0.340 0.500  1.10 0.390  84.3  12.1 -99.0 0.020  5.00-99.00  6.40-99.00
   50.       0.307 0.434 0.489 0.230 0.500  1.10 0.390  84.3  12.1 -99.0 0.020  5.00-99.00  6.40-99.00
   60.       0.307 0.434 0.489 0.200 0.500  1.20 0.200  84.3  12.1 -99.0 0.010  5.00-99.00  6.40-99.00
   70.       0.307 0.434 0.489 0.180 0.500  1.20 0.200  84.3  12.1 -99.0 0.010  5.00-99.00  6.40-99.00
  100.       0.307 0.434 0.489 0.160 0.500  1.32 0.300  84.3  12.1 -99.0 0.030  4.90-99.00  6.40-99.00
  125.       0.307 0.434 0.489 0.040 0.500  1.32 0.200  84.3  12.1 -99.0 0.020  4.90-99.00  5.40-99.00
  150.       0.307 0.434 0.489 0.040 0.500  1.32 0.200  84.3  12.1 -99.0 0.020  4.90-99.00  5.40-99.00
  160.       0.307 0.434 0.489 0.000 0.500  1.32 0.200  84.3  12.1 -99.0 0.020  4.90-99.00  5.40-99.00
  230.       0.307 0.434 0.489 0.000 0.500  1.32 0.200  84.3  12.1 -99.0 0.020  4.90-99.00  5.40-99.00
  300.       0.307 0.434 0.489 0.000 0.500  1.32 0.200  84.3  12.1 -99.0 0.020  4.90-99.00  5.40-99.00
                    
    5. 20.60 -99.0 -99.0 -99.0   0.0 -99.0 -99.0 -99.0 -99.0 -99.0  0.20 -99.0 -99.0 -99.0 -99.0   3.9  -99.  -99.
   15. 18.15 -99.0 -99.0 -99.0   0.0 -99.0 -99.0 -99.0 -99.0 -99.0  0.20 -99.0 -99.0 -99.0 -99.0   3.9  -99.  -99.
   30. 12.30 -99.0 -99.0 -99.0   0.0 -99.0 -99.0 -99.0 -99.0 -99.0  0.20 -99.0 -99.0 -99.0 -99.0   3.9  -99.  -99.
   40.  9.60 -99.0 -99.0 -99.0   0.0 -99.0 -99.0 -99.0 -99.0 -99.0  0.20 -99.0 -99.0 -99.0 -99.0   3.9  -99.  -99.
   50.  9.60 -99.0 -99.0 -99.0   0.0 -99.0 -99.0 -99.0 -99.0 -99.0  0.20 -99.0 -99.0 -99.0 -99.0   2.9  -99.  -99.
   60.  6.60 -99.0 -99.0 -99.0   0.0 -99.0 -99.0 -99.0 -99.0 -99.0  0.10 -99.0 -99.0 -99.0 -99.0   2.9  -99.  -99.
   70.  6.60 -99.0 -99.0 -99.0   0.2 -99.0 -99.0 -99.0 -99.0 -99.0  0.10 -99.0 -99.0 -99.0 -99.0   1.8  -99.  -99.
  100.-99.00 -99.0 -99.0 -99.0   0.2 -99.0 -99.0 -99.0 -99.0 -99.0  0.10 -99.0 -99.0 -99.0 -99.0   1.8  -99.  -99.
  125.-99.00 -99.0 -99.0 -99.0   0.3 -99.0 -99.0 -99.0 -99.0 -99.0  0.10 -99.0 -99.0 -99.0 -99.0   1.2  -99.  -99.
  150.-99.00 -99.0 -99.0 -99.0   0.3 -99.0 -99.0 -99.0 -99.0 -99.0  0.10 -99.0 -99.0 -99.0 -99.0   1.2  -99.  -99.
  160.-99.00 -99.0 -99.0 -99.0   0.3 -99.0 -99.0 -99.0 -99.0 -99.0  0.10 -99.0 -99.0 -99.0 -99.0   1.2  -99.  -99.
  230.-99.00 -99.0 -99.0 -99.0   0.3 -99.0 -99.0 -99.0 -99.0 -99.0  0.10 -99.0 -99.0 -99.0 -99.0   1.2  -99.  -99.
  300.-99.00 -99.0 -99.0 -99.0   0.3 -99.0 -99.0 -99.0 -99.0 -99.0  0.10 -99.0 -99.0 -99.0 -99.0   1.2  -99.  -99.
                    
    5.-99.00-99.00-99.00-99.00
   15.-99.00-99.00-99.00-99.00
   30.-99.00-99.00-99.00-99.00
   40.-99.00-99.00-99.00-99.00
   50.-99.00-99.00-99.00-99.00
   60.-99.00-99.00-99.00-99.00
   70.-99.00-99.00-99.00-99.00
  100.-99.00-99.00-99.00-99.00
  125.-99.00-99.00-99.00-99.00
  150.-99.00-99.00-99.00-99.00
  160.-99.00-99.00-99.00-99.00
  230.-99.00-99.00-99.00-99.00
  300.-99.00-99.00-99.00-99.00
*CULTIVAR           
RB0002 MG77PA (13)      SB0777 11.80 0.325 25.00  5.00 10.50 27.50 22.00 1.200 365.0 230.0  1.00 0.150 18.20  2.00 10.00  76.0 0.400 0.200
