*MODEL INPUT FILE            B     1     1     1   999     0
*FILES              
MODEL          PRFRM048
FILEX          UFIP9501.BHX                                                                                 
FILEA          UFIP9501.BHA                                                                                 
FILET          UFIP9501.BHT                                                                                 
SPECIES        BHFRM048.SPE C:\DSSAT48\GENOTYPE\                                                            
ECOTYPE        BHFRM048.ECO C:\DSSAT48\GENOTYPE\                                                            
CULTIVAR       BHFRM048.CUL C:\DSSAT48\GENOTYPE\                                                            
PESTS          BHFRM048.PST C:\DSSAT48\PEST\                                                                
SOILS          UF.SOL       C:\DSSAT48\SOIL\                                                                
WEATHERW       UFIP9501.WTH C:\DSSAT48\Weather\                                                             
OUTPUT         OVERVIEW
*SIMULATION CONTROL 
                   1     1     S 1995069  2150 DEFAULT SIM CONTROL      
                   Y     Y     N     N     N     N     N     N     M
                   M     M     E     R     S     L     R     1     P     R     2     D     0
                   R     R     R     N     R
                   N     Y     Y     1     Y     Y     Y     Y     N     Y     Y     Y     N
!AUTOMATIC MANAGEM  
                   -99     -99   40.  100.   30.   40.   10.
                 30.   50.  100. GS000 IR001  10.0 1.000
                 30.   50.   25. FE001 GS000
                100.     1   20.
                     0     -99  100.    0.
*EXP.DETAILS        
  1UFIP9501 BH IRRIGATION PARK CO2 & TEMP RESPONSE                         
*TREATMENTS         
  1 1 1 0 360vpm/Baseline          
*CULTIVARS          
   BH UF0001 Pensacola       
*FIELDS             
   UFIPTGG1 UFIP9501   0.0  -99. DR000  -99. 100.0   -99 S      -99. UFGA760006-99.00 -99.0
    -99.0000000000  -99.0000000000   -99.000               1.0  100.   1.0 -99.0   -99   -99
*INITIAL CONDITIONS 
   G0    1995101  5000     0  1.00  1.00 -99.0  1500  0.90  0.00  100.   15.
      5. 0.086 0.100 0.800
     15. 0.086 0.100 0.800
     20. 0.086 0.100 0.800
     35. 0.086 0.100 0.800
     49. 0.086 0.100 0.800
     64. 0.083 0.100 0.800
     79. 0.076 0.100 0.800
    101. 0.076 0.100 0.800
    124. 0.085 0.100 0.800
    137. 0.130 0.100 0.800
    162. 0.191 0.100 0.800
    183. 0.258 0.100 0.800
    218. 0.291 0.010 0.010
*PLANTING DETAILS   
   1995101 1995110 240.0 180.0     S     U    2.  -99.   1.5  -99.  -99. -99.0 -99.0 -99.0
*IRRIGATION         
   1.000   30.   50.  100. GS000 IR001  10.0
   1995101 IR004  11.0
*FERTILIZERS        
   1995097 FE001 AP001    0.    5.  -99.  -99.  -99.  -99.   -99
   1995136 FE001 AP001    0.    5.  -99.  -99.  -99.  -99.   -99
   1995150 FE001 AP001    0.    5.  -99.  -99.  -99.  -99.   -99
   1995164 FE001 AP001    0.    5.  -99.  -99.  -99.  -99.   -99
   1995178 FE001 AP001    0.    5.  -99.  -99.  -99.  -99.   -99
   1995188 FE001 AP001    0.    5.  -99.  -99.  -99.  -99.   -99
   1995198 FE001 AP001    0.    5.  -99.  -99.  -99.  -99.   -99
   1995215 FE001 AP001    0.   10.  -99.  -99.  -99.  -99.   -99
   1995233 FE001 AP001    0.   10.  -99.  -99.  -99.  -99.   -99
   1995252 FE001 AP001    0.   10.  -99.  -99.  -99.  -99.   -99
   1995272 FE001 AP001    0.   15.  -99.  -99.  -99.  -99.   -99
   1996103 FE001 AP001    0.   10.  -99.  -99.  -99.  -99.   -99
   1996167 FE001 AP001    0.    5.  -99.  -99.  -99.  -99.   -99
   1996178 FE001 AP001    0.    5.  -99.  -99.  -99.  -99.   -99
   1996187 FE001 AP001    0.    5.  -99.  -99.  -99.  -99.   -99
   1996199 FE001 AP001    0.    5.  -99.  -99.  -99.  -99.   -99
   1996208 FE001 AP001    0.    5.  -99.  -99.  -99.  -99.   -99
   1996220 FE001 AP001    0.    5.  -99.  -99.  -99.  -99.   -99
   1996235 FE001 AP001    0.    5.  -99.  -99.  -99.  -99.   -99
   1996249 FE001 AP001    0.    5.  -99.  -99.  -99.  -99.   -99
   1996263 FE001 AP001    0.    5.  -99.  -99.  -99.  -99.   -99
   1996277 FE001 AP001    0.    5.  -99.  -99.  -99.  -99.   -99
   1996291 FE001 AP001    0.    5.  -99.  -99.  -99.  -99.   -99
   1996305 FE001 AP001    0.    5.  -99.  -99.  -99.  -99.   -99
   1997062 FE001 AP001    0.    5.  -99.  -99.  -99.  -99.   -99
   1997086 FE001 AP001    0.    5.  -99.  -99.  -99.  -99.   -99
   1997100 FE001 AP001    0.    5.  -99.  -99.  -99.  -99.   -99
   1997114 FE001 AP001    0.    5.  -99.  -99.  -99.  -99.   -99
   1997132 FE001 AP001    0.    5.  -99.  -99.  -99.  -99.   -99
   1997146 FE001 AP001    0.    5.  -99.  -99.  -99.  -99.   -99
   1997160 FE001 AP001    0.    5.  -99.  -99.  -99.  -99.   -99
   1997174 FE001 AP001    0.    5.  -99.  -99.  -99.  -99.   -99
   1997184 FE001 AP001    0.    5.  -99.  -99.  -99.  -99.   -99
   1997199 FE001 AP001    0.    5.  -99.  -99.  -99.  -99.   -99
   1997213 FE001 AP001    0.    5.  -99.  -99.  -99.  -99.   -99
   1997227 FE001 AP001    0.    5.  -99.  -99.  -99.  -99.   -99
   1997234 FE001 AP001    0.    5.  -99.  -99.  -99.  -99.   -99
   1997255 FE001 AP001    0.    5.  -99.  -99.  -99.  -99.   -99
   1997276 FE001 AP001    0.    5.  -99.  -99.  -99.  -99.   -99
   1997297 FE001 AP001    0.    5.  -99.  -99.  -99.  -99.   -99
   1998082 FE001 AP001    0.    5.  -99.  -99.  -99.  -99.   -99
   1998096 FE001 AP001    0.    5.  -99.  -99.  -99.  -99.   -99
   1998110 FE001 AP001    0.    5.  -99.  -99.  -99.  -99.   -99
   1998124 FE001 AP001    0.    5.  -99.  -99.  -99.  -99.   -99
   1998140 FE001 AP001    0.    5.  -99.  -99.  -99.  -99.   -99
   1998154 FE001 AP001    0.    5.  -99.  -99.  -99.  -99.   -99
   1998168 FE001 AP001    0.    5.  -99.  -99.  -99.  -99.   -99
   1998182 FE001 AP001    0.    5.  -99.  -99.  -99.  -99.   -99
   1998189 FE001 AP001    0.    5.  -99.  -99.  -99.  -99.   -99
   1998196 FE001 AP001    0.    5.  -99.  -99.  -99.  -99.   -99
   1998203 FE001 AP001    0.    5.  -99.  -99.  -99.  -99.   -99
   1998210 FE001 AP001    0.    5.  -99.  -99.  -99.  -99.   -99
   1998222 FE001 AP001    0.    5.  -99.  -99.  -99.  -99.   -99
   1998243 FE001 AP001    0.    5.  -99.  -99.  -99.  -99.   -99
   1998264 FE001 AP001    0.    5.  -99.  -99.  -99.  -99.   -99
   1998292 FE001 AP001    0.    5.  -99.  -99.  -99.  -99.   -99
*RESIDUES           
*CHEMICALS          
*TILLAGE            
*ENVIRONMENT        
   1995069 A 0.0 M0.88 A 0.0 A 0.0 A 0.0 R 360 A 0.0 A 0.0
*HARVEST            
   1998365 GS000    HA   -99  100.  100.
*SOIL               
 UFGA760006  S1-66-(1-7) S      -99. Arredondo Fine Sand                               
 Gainesville USA          29.630 -82.400 Loamy,silic,hyperth Gross. Paleudults             
 BN     0.13   6.1  0.60   30.  1.00  1.00 IB001 IB001 IB001 -99  
    5.       0.020 0.087 0.398 1.000  22.6  1.50 0.570   3.1   4.5   0.0  -9.0  6.00-99.00  6.30-99.00
   15.       0.020 0.087 0.398 1.000  22.6  1.50 0.570   3.1   4.5   0.0  -9.0  6.00-99.00  6.30-99.00
   20.       0.020 0.087 0.398 1.000  22.6  1.50 0.570   3.1   4.5   0.0  -9.0  6.00-99.00  6.30-99.00
   35.       0.026 0.075 0.382 0.372  27.3  1.60 0.170   3.6   4.7   0.0  -9.0  5.80-99.00  3.40-99.00
   49.       0.026 0.075 0.382 0.372  27.3  1.60 0.170   3.6   4.7   0.0  -9.0  5.80-99.00  3.40-99.00
   64.       0.026 0.075 0.382 0.372  27.3  1.60 0.170   3.6   4.7   0.0  -9.0  5.80-99.00  3.40-99.00
   79.       0.026 0.075 0.382 0.372  27.3  1.60 0.170   3.6   4.7   0.0  -9.0  5.80-99.00  3.40-99.00
  101.       0.023 0.090 0.405 0.131  12.2  1.50 0.050   2.7   4.3   0.0  -9.0  5.60-99.00  2.30-99.00
  124.       0.023 0.090 0.405 0.131  12.2  1.50 0.050   2.7   4.3   0.0  -9.0  5.60-99.00  2.30-99.00
  137.       0.021 0.082 0.362 0.074  5.90  1.60 0.070   9.2   4.2   0.0  -9.0  5.40-99.00  5.60-99.00
  162.       0.205 0.291 0.369 0.050 0.100  1.60 0.090  22.4   4.6   0.0  -9.0  5.20-99.00 15.40-99.00
  183.       0.205 0.291 0.376 0.032  1.59  1.60 0.060  27.7   5.8   0.0  -9.0  5.30-99.00 22.60-99.00
  218.       0.205 0.291 0.358 0.018  1.27  1.70 0.060  26.5   5.6   0.0  -9.0  5.30-99.00 23.10-99.00
                    
    5.-99.00 -99.0 -99.0 -99.0 -99.0 -99.0 -99.0 -99.0 -99.0 -99.0-99.00 -99.0 -99.0 -99.0 -99.0 -99.0 0.390  -99.
   15.-99.00 -99.0 -99.0 -99.0 -99.0 -99.0 -99.0 -99.0 -99.0 -99.0-99.00 -99.0 -99.0 -99.0 -99.0 -99.0 0.390  -99.
   20.-99.00 -99.0 -99.0 -99.0 -99.0 -99.0 -99.0 -99.0 -99.0 -99.0-99.00 -99.0 -99.0 -99.0 -99.0 -99.0 0.390  -99.
   35.-99.00 -99.0 -99.0 -99.0 -99.0 -99.0 -99.0 -99.0 -99.0 -99.0-99.00 -99.0 -99.0 -99.0 -99.0 -99.0 0.120  -99.
   49.-99.00 -99.0 -99.0 -99.0 -99.0 -99.0 -99.0 -99.0 -99.0 -99.0-99.00 -99.0 -99.0 -99.0 -99.0 -99.0 0.120  -99.
   64.-99.00 -99.0 -99.0 -99.0 -99.0 -99.0 -99.0 -99.0 -99.0 -99.0-99.00 -99.0 -99.0 -99.0 -99.0 -99.0 0.120  -99.
   79.-99.00 -99.0 -99.0 -99.0 -99.0 -99.0 -99.0 -99.0 -99.0 -99.0-99.00 -99.0 -99.0 -99.0 -99.0 -99.0 0.120  -99.
  101.-99.00 -99.0 -99.0 -99.0 -99.0 -99.0 -99.0 -99.0 -99.0 -99.0-99.00 -99.0 -99.0 -99.0 -99.0 -99.0 0.040  -99.
  124.-99.00 -99.0 -99.0 -99.0 -99.0 -99.0 -99.0 -99.0 -99.0 -99.0-99.00 -99.0 -99.0 -99.0 -99.0 -99.0 0.040  -99.
  137.-99.00 -99.0 -99.0 -99.0 -99.0 -99.0 -99.0 -99.0 -99.0 -99.0-99.00 -99.0 -99.0 -99.0 -99.0 -99.0 0.060  -99.
  162.-99.00 -99.0 -99.0 -99.0 -99.0 -99.0 -99.0 -99.0 -99.0 -99.0-99.00 -99.0 -99.0 -99.0 -99.0 -99.0 0.070  -99.
  183.-99.00 -99.0 -99.0 -99.0 -99.0 -99.0 -99.0 -99.0 -99.0 -99.0-99.00 -99.0 -99.0 -99.0 -99.0 -99.0 0.050  -99.
  218.-99.00 -99.0 -99.0 -99.0 -99.0 -99.0 -99.0 -99.0 -99.0 -99.0-99.00 -99.0 -99.0 -99.0 -99.0 -99.0 0.050  -99.
                    
    5.-99.00-99.00-99.00-99.00
   15.-99.00-99.00-99.00-99.00
   20.-99.00-99.00-99.00-99.00
   35.-99.00-99.00-99.00-99.00
   49.-99.00-99.00-99.00-99.00
   64.-99.00-99.00-99.00-99.00
   79.-99.00-99.00-99.00-99.00
  101.-99.00-99.00-99.00-99.00
  124.-99.00-99.00-99.00-99.00
  137.-99.00-99.00-99.00-99.00
  162.-99.00-99.00-99.00-99.00
  183.-99.00-99.00-99.00-99.00
  218.-99.00-99.00-99.00-99.00
*CULTIVAR           
UF0001 Pensacola        G00001 12.50 0.200 99.00 10.00 18.00 33.00 25.00 1.800 180.0   2.0  0.01 0.020 15.00  2.05 20.00  78.0 0.115 0.035
