*MODEL INPUT FILE            B     1     1     1   999     0
*FILES              
MODEL          CRGRO048
FILEX          GACM0401.COX                                                                                 
FILEA          GACM0401.COA                                                                                 
FILET          GACM0401.COT                                                                                 
SPECIES        COGRO048.SPE C:\DSSAT48\GENOTYPE\                                                            
ECOTYPE        COGRO048.ECO C:\DSSAT48\GENOTYPE\                                                            
CULTIVAR       COGRO048.CUL C:\DSSAT48\GENOTYPE\                                                            
PESTS          COGRO048.PST C:\DSSAT48\PEST\                                                                
SOILS          GA.SOL       C:\DSSAT48\SOIL\                                                                
WEATHERW       GACM9824.WTH C:\DSSAT48\Weather\                                                             
OUTPUT         OVERVIEW
*SIMULATION CONTROL 
                   1     1     S 2004121  2150 VRI Pivot_Irrigated      
                   Y     Y     N     N     N     N     N     Y     M
                   M     M     E     R     S     L     R     1     G     R     1     D     0
                   R     A     R     N     M
                   N     Y     Y     1     Y     Y     Y     Y     N     N     Y     N     N
!AUTOMATIC MANAGEM  
                   -99     -99   40.  100.   30.   40.   10.
                 40.   60.  100. GS000 IR004  10.0 0.950
                 30.   50.   25. FE001 GS000
                100.     1   20.
                     0     -99  100.    0.
*EXP.DETAILS        
  1GACM0401 CO 2004 SIRP IRRIGATED VS RAINFED COTTON EXPERIMENT            
*TREATMENTS         
  1 1 1 0 Irrigated DP 555 BG/RR   
*CULTIVARS          
   CO IB0004 Deltapine 555 BG
*FIELDS             
   GACM0101 GACM9824   0.0  -99.   -99  -99. 100.0     0 LS     245. GAPL850009-99.00 -99.0
    -99.0000000000  -99.0000000000   -99.000               1.0  100.   1.0 -99.0   -99   -99
*INITIAL CONDITIONS 
   WH    2004121   300     0  1.00  1.00 -99.0  4000  3.00  0.00  100.   15.
      5. 0.129 0.200  1.60
     15. 0.129 0.200  1.60
     30. 0.143 0.200  1.60
     45. 0.155 0.200  1.60
     60. 0.155 0.200  1.60
     90. 0.167 0.200  1.60
    120. 0.209 0.200  1.60
    150. 0.224 0.200  1.60
    180. 0.223 0.200  1.60
    210. 0.221 0.200  1.60
    240. 0.221 0.200  1.60
    270. 0.225 0.200  1.60
    300. 0.226 0.200  1.60
*PLANTING DETAILS   
   2004127 2004133  14.0  11.0     S     R   90.  -99.   2.5  -99.  -99. -99.0 -99.0 -99.0
*IRRIGATION         
   1.000    0.    0.    0. GS000 IR001   0.0
*FERTILIZERS        
   2004127 FE001 AP004   10.   20.  -99.  -99.  -99.  -99.   -99
   2004148 FE001 AP004   10.   20.  -99.  -99.  -99.  -99.   -99
   2004179 FE001 AP004   10.   50.  -99.  -99.  -99.  -99.   -99
*RESIDUES           
*CHEMICALS          
*TILLAGE            
*ENVIRONMENT        
*HARVEST            
*SOIL               
 GAPL850009  NRCS-USDA   LS     245. Lucy, Loamy Sand                                  
 Sumter      US           32.000 -84.230 Loamy, siliceous, thermic Arenic Paleudult        
 Y      0.17   6.0  0.60   76.  1.00  0.93 IB001 IB001 IB001 -99  
    5.       0.066 0.129 0.378 1.000  21.0  1.58 0.650   4.4   6.5   0.0 0.040  4.50-99.00  3.80-99.00
   15.       0.066 0.129 0.378 1.000  21.0  1.58 0.650   4.4   6.5   0.0 0.040  4.50-99.00  3.80-99.00
   30.       0.081 0.143 0.369 0.787  11.2  1.61 0.383   8.8   7.9   0.0 0.024  4.82-99.00  3.27-99.00
   45.       0.094 0.155 0.361 0.600  2.59  1.64 0.150  12.7   9.2   0.0 0.010  5.10-99.00  2.80-99.00
   60.       0.094 0.155 0.361 0.600  2.59  1.64 0.150  12.7   9.2   0.0 0.010  5.10-99.00  2.80-99.00
   90.       0.106 0.167 0.358 0.425  2.59  1.65 0.140  15.1   8.8   0.0 0.010  5.25-99.00  3.05-99.00
  120.       0.150 0.209 0.335 0.150  1.15  1.71 0.103  24.2   5.4   0.0 0.010  5.33-99.00  4.03-99.00
  150.       0.166 0.224 0.325 0.100 0.430  1.74 0.090  27.5   4.0   0.0 0.010  5.30-99.00  4.40-99.00
  180.       0.165 0.223 0.325 0.050 0.430  1.74 0.080  27.4   3.7   0.0 0.010  5.20-99.00  4.40-99.00
  210.       0.164 0.221 0.326 0.000 0.430  1.74 0.070  27.3   3.3   0.0 0.010  5.10-99.00  4.40-99.00
  240.       0.164 0.221 0.326 0.000 0.430  1.74 0.070  27.3   3.3   0.0 0.010  5.10-99.00  4.40-99.00
  270.       0.169 0.225 0.320 0.000 0.430  1.76 0.053  28.3   3.3   0.0 0.002  5.27-99.00  3.73-99.00
  300.       0.170 0.226 0.319 0.000 0.430  1.76 0.050  28.5   3.3   0.0   0.0  5.30-99.00  3.60-99.00
                    
    5.-99.00 -99.0 -99.0 -99.0 -99.0 -99.0 -99.0 -99.0 -99.0 -99.0-99.00 -99.0 -99.0 -99.0 -99.0 -99.0  -99.  -99.
   15.-99.00 -99.0 -99.0 -99.0 -99.0 -99.0 -99.0 -99.0 -99.0 -99.0-99.00 -99.0 -99.0 -99.0 -99.0 -99.0  -99.  -99.
   30.-99.00 -99.0 -99.0 -99.0 -99.0 -99.0 -99.0 -99.0 -99.0 -99.0-99.00 -99.0 -99.0 -99.0 -99.0 -99.0  -99.  -99.
   45.-99.00 -99.0 -99.0 -99.0 -99.0 -99.0 -99.0 -99.0 -99.0 -99.0-99.00 -99.0 -99.0 -99.0 -99.0 -99.0  -99.  -99.
   60.-99.00 -99.0 -99.0 -99.0 -99.0 -99.0 -99.0 -99.0 -99.0 -99.0-99.00 -99.0 -99.0 -99.0 -99.0 -99.0  -99.  -99.
   90.-99.00 -99.0 -99.0 -99.0 -99.0 -99.0 -99.0 -99.0 -99.0 -99.0-99.00 -99.0 -99.0 -99.0 -99.0 -99.0  -99.  -99.
  120.-99.00 -99.0 -99.0 -99.0 -99.0 -99.0 -99.0 -99.0 -99.0 -99.0-99.00 -99.0 -99.0 -99.0 -99.0 -99.0  -99.  -99.
  150.-99.00 -99.0 -99.0 -99.0 -99.0 -99.0 -99.0 -99.0 -99.0 -99.0-99.00 -99.0 -99.0 -99.0 -99.0 -99.0  -99.  -99.
  180.-99.00 -99.0 -99.0 -99.0 -99.0 -99.0 -99.0 -99.0 -99.0 -99.0-99.00 -99.0 -99.0 -99.0 -99.0 -99.0  -99.  -99.
  210.-99.00 -99.0 -99.0 -99.0 -99.0 -99.0 -99.0 -99.0 -99.0 -99.0-99.00 -99.0 -99.0 -99.0 -99.0 -99.0  -99.  -99.
  240.-99.00 -99.0 -99.0 -99.0 -99.0 -99.0 -99.0 -99.0 -99.0 -99.0-99.00 -99.0 -99.0 -99.0 -99.0 -99.0  -99.  -99.
  270.-99.00 -99.0 -99.0 -99.0 -99.0 -99.0 -99.0 -99.0 -99.0 -99.0-99.00 -99.0 -99.0 -99.0 -99.0 -99.0  -99.  -99.
  300.-99.00 -99.0 -99.0 -99.0 -99.0 -99.0 -99.0 -99.0 -99.0 -99.0-99.00 -99.0 -99.0 -99.0 -99.0 -99.0  -99.  -99.
                    
    5.-99.00-99.00-99.00-99.00
   15.-99.00-99.00-99.00-99.00
   30.-99.00-99.00-99.00-99.00
   45.-99.00-99.00-99.00-99.00
   60.-99.00-99.00-99.00-99.00
   90.-99.00-99.00-99.00-99.00
  120.-99.00-99.00-99.00-99.00
  150.-99.00-99.00-99.00-99.00
  180.-99.00-99.00-99.00-99.00
  210.-99.00-99.00-99.00-99.00
  240.-99.00-99.00-99.00-99.00
  270.-99.00-99.00-99.00-99.00
  300.-99.00-99.00-99.00-99.00
*CULTIVAR           
IB0004 Deltapine 555 BG CO0005 23.00 0.010 38.00  7.50 11.50 42.00 65.00 1.080 162.0 300.0  0.77 0.180 34.00 27.00 12.00  76.0 0.153 0.120
