*MODEL INPUT FILE            B     1     1     1   999     0
*FILES              
MODEL          CRGRO048
FILEX          UHIH1703.SFX                                                                                 
FILEA          UHIH1703.SFA                                                                                 
FILET          UHIH1703.SFT                                                                                 
SPECIES        SFGRO048.SPE C:\DSSAT48\GENOTYPE\                                                            
ECOTYPE        SFGRO048.ECO C:\DSSAT48\GENOTYPE\                                                            
CULTIVAR       SFGRO048.CUL C:\DSSAT48\GENOTYPE\                                                            
PESTS          SFGRO048.PST C:\DSSAT48\PEST\                                                                
SOILS          UH.SOL       C:\DSSAT48\SOIL\                                                                
WEATHERW       UHIH1701.WTH C:\DSSAT48\Weather\                                                             
OUTPUT         OVERVIEW
*SIMULATION CONTROL 
                   1     1     S 2017111  2150 DEFAULT SIMULATION CONTR 
                   Y     N     N     N     N     N     N     Y     M
                   M     M     E     R     S     L     R     1     G     R     2     D     0
                   R     N     N     N     R
                   N     Y     Y     1     Y     Y     Y     Y     Y     N     Y     N     Y
!AUTOMATIC MANAGEM  
                   -99     -99   40.  100.   30.   40.   10.
                 30.   50.  100. GS000 IR001  10.0 1.000
                 30.   50.   25. FE001 GS000
                100.     1   20.
                     0     -99  100.    0.
*EXP.DETAILS        
  1UHIH1703 SF TWO CVS * PLANT DENSITY & SPACING; 2017; UNIV OF HOHENHEIM  
*TREATMENTS         
  1 1 1 0 S1, R1, B1               
*CULTIVARS          
   SF UH0001 Goldschopf      
*FIELDS             
   UHIH2017 UHIH1701   0.0  -99. DR000  -99. 100.0   -99 L      -99. UH00002020-99.00 -99.0
      8.9300003052   48.7299995422   479.000               1.0  100.   1.0 -99.0   -99   -99
*INITIAL CONDITIONS 
   99    2017111   -99   -99  1.00  1.00 -99.0   -99 -9.00 -9.00  -99.  -99.
      5. 0.406   0.0  17.8
     15. 0.406   0.0  17.8
     30. 0.406   0.0  17.8
     45. 0.406   0.0  8.20
     60. 0.406   0.0  8.20
     90. 0.406   0.0  2.40
    120. 0.406   0.0  2.40
    150. 0.406   0.0  2.40
    180. 0.406   0.0  2.40
*PLANTING DETAILS   
   2017115     -99  36.0  36.0     S     R   12.    0.   2.5  -99.  -99. -99.0 -99.0 -99.0
*IRRIGATION         
   1.000    0.    0.    0. GS000 IR001   0.0
*FERTILIZERS        
*RESIDUES           
*CHEMICALS          
*TILLAGE            
   2017114 TI005   8.0
   2017115 TI033   2.0
*ENVIRONMENT        
*HARVEST            
   2017241 GS000     H   -99  100.    0.
*SOIL               
 UH00002020  IBSNAT      L      -99.   UHIH2017                                        
 Generic     Generic      -0.099  -0.099 Generic                                           
 -99    0.11   6.0  0.30   73.  1.00  1.00 IB001 IB001 IB001 -99  
    5.       0.229 0.406 0.482 1.000  -99.  1.40 1.240  27.1  70.2 -99.0 0.160  0.00-99.00-99.00-99.00
   15.       0.229 0.406 0.482 1.000  -99.  1.40 1.240  27.1  70.2 -99.0 0.160  0.00-99.00-99.00-99.00
   30.       0.229 0.406 0.482 1.000  -99.  1.40 1.240  27.1  70.2 -99.0 0.160  0.00-99.00-99.00-99.00
   45.       0.229 0.406 0.465 0.550  -99.  1.50 0.650  27.2  70.4 -99.0 0.100  0.00-99.00-99.00-99.00
   60.       0.229 0.406 0.465 0.550  -99.  1.50 0.650  27.2  70.4 -99.0 0.100  0.00-99.00-99.00-99.00
   90.       0.238 0.406 0.468 0.400  -99.  1.60 0.550  33.1  63.6 -99.0 0.090  0.00-99.00-99.00-99.00
  120.       0.238 0.406 0.468 0.300  -99.  1.60 0.550  33.1  63.6 -99.0 0.090  0.00-99.00-99.00-99.00
  150.       0.238 0.406 0.468 0.200  -99.  1.60 0.550  33.1  63.6 -99.0 0.090  0.00-99.00-99.00-99.00
  180.       0.238 0.406 0.468 0.100  -99.  1.60 0.550  33.1  63.6 -99.0 0.090  0.00-99.00-99.00-99.00
                    
    5.-99.00 -99.0 -99.0 -99.0 -99.0 -99.0 -99.0 -99.0 -99.0 -99.0-99.00 -99.0 -99.0 -99.0 -99.0 -99.0  -99.  -99.
   15.-99.00 -99.0 -99.0 -99.0 -99.0 -99.0 -99.0 -99.0 -99.0 -99.0-99.00 -99.0 -99.0 -99.0 -99.0 -99.0  -99.  -99.
   30.-99.00 -99.0 -99.0 -99.0 -99.0 -99.0 -99.0 -99.0 -99.0 -99.0-99.00 -99.0 -99.0 -99.0 -99.0 -99.0  -99.  -99.
   45.-99.00 -99.0 -99.0 -99.0 -99.0 -99.0 -99.0 -99.0 -99.0 -99.0-99.00 -99.0 -99.0 -99.0 -99.0 -99.0  -99.  -99.
   60.-99.00 -99.0 -99.0 -99.0 -99.0 -99.0 -99.0 -99.0 -99.0 -99.0-99.00 -99.0 -99.0 -99.0 -99.0 -99.0  -99.  -99.
   90.-99.00 -99.0 -99.0 -99.0 -99.0 -99.0 -99.0 -99.0 -99.0 -99.0-99.00 -99.0 -99.0 -99.0 -99.0 -99.0  -99.  -99.
  120.-99.00 -99.0 -99.0 -99.0 -99.0 -99.0 -99.0 -99.0 -99.0 -99.0-99.00 -99.0 -99.0 -99.0 -99.0 -99.0  -99.  -99.
  150.-99.00 -99.0 -99.0 -99.0 -99.0 -99.0 -99.0 -99.0 -99.0 -99.0-99.00 -99.0 -99.0 -99.0 -99.0 -99.0  -99.  -99.
  180.-99.00 -99.0 -99.0 -99.0 -99.0 -99.0 -99.0 -99.0 -99.0 -99.0-99.00 -99.0 -99.0 -99.0 -99.0 -99.0  -99.  -99.
                    
    5.-99.00-99.00-99.00-99.00
   15.-99.00-99.00-99.00-99.00
   30.-99.00-99.00-99.00-99.00
   45.-99.00-99.00-99.00-99.00
   60.-99.00-99.00-99.00-99.00
   90.-99.00-99.00-99.00-99.00
  120.-99.00-99.00-99.00-99.00
  150.-99.00-99.00-99.00-99.00
  180.-99.00-99.00-99.00-99.00
*CULTIVAR           
UH0001 Goldschopf       BW0001 23.00 0.001 10.30  4.50 13.00 28.50 18.00 1.550 250.0 115.0  0.67 0.064 30.00 22.25 19.00  55.0 0.140 0.330
