*MODEL INPUT FILE            B     1     1     1   999     0
*FILES              
MODEL          MZCER048
FILEX          SIAZ9501.MZX                                                                                 
FILEA          SIAZ9501.MZA                                                                                 
FILET          SIAZ9501.MZT                                                                                 
SPECIES        MZCER048.SPE C:\DSSAT48\GENOTYPE\                                                            
ECOTYPE        MZCER048.ECO C:\DSSAT48\GENOTYPE\                                                            
CULTIVAR       MZCER048.CUL C:\DSSAT48\GENOTYPE\                                                            
PESTS          MZCER048.PST C:\DSSAT48\PEST\                                                                
SOILS          SI.SOL       C:\DSSAT48\SOIL\                                                                
WEATHERW       SIAZ9501.WTH C:\DSSAT48\Weather\                                                             
OUTPUT         OVERVIEW
*SIMULATION CONTROL 
                   1     1     S 1995136  2150 ZARAGOSA, SPAIN, 1995, 9 
                   Y     Y     N     N     N     N     N     Y     M
                   M     M     E     R     S     R     R     1     G     S     2     D     0
                   R     R     R     R     M
                   N     Y     Y     1     Y     N     Y     Y     N     N     Y     N     N
!AUTOMATIC MANAGEM  
                   -99     -99   40.  100.   30.   40.   10.
                 30.   50.  100. GS000 IR001  10.0 1.000
                 30.   50.   25. FE001 GS000
                100.     1   20.
                     0     -99  100.    0.
*EXP.DETAILS        
  1SIAZ9501 MZ 1995 SIA EXPERIMENT, ZARAGOSA, SPAIN                        
*TREATMENTS         
  1 0 0 0 III - FULL IRRIGATION    
*CULTIVARS          
   MZ ZA0002 Prisma GC Avg   
*FIELDS             
   SIAZ0001 SIAZ9501   0.0    0. DR000    0. 100.0 00000 L      150. SIAZ950001-99.00 -99.0
      0.0000000000    0.0000000000     0.000               1.0  100.   1.0   0.0   -99   -99
*INITIAL CONDITIONS 
   MZ    1995137   100     0  1.00  1.00 -99.0     0  0.00  0.00  100.   15.
      5. 0.203 0.200  2.10
     15. 0.203 0.200  2.10
     30. 0.203 0.200  2.10
     45. 0.282 0.200  1.10
     60. 0.282 0.200  1.10
     70. 0.223 0.200 0.900
     80. 0.223 0.200 0.900
*PLANTING DETAILS   
   1995137 1995145   8.0   8.0     S     R    1.    0.   3.0  -99.  -99. -99.0   1.0   0.0
*IRRIGATION         
   1.000   30.   50.  100. GS000 IR001  10.0
   1995165 IR001  79.0
   1995177 IR001  65.0
   1995188 IR001  61.0
   1995199 IR001  60.0
   1995209 IR001  65.0
   1995221 IR001  65.0
   1995234 IR001  60.0
   1995248 IR001  57.0
   1995262 IR001  56.0
*FERTILIZERS        
   1995136 FE005 AP002   15.  100.    0.    0.    0.    0.   -99
   1995167 FE005 AP002   15.  200.    0.    0.    0.    0.   -99
*RESIDUES           
*CHEMICALS          
*TILLAGE            
*ENVIRONMENT        
*HARVEST            
*SOIL               
 SIAZ950001  SCS         L      150. Shallow loam                                      
 ZA          SPAIN        41.480   0.530 UNKNOWN- Corrected LL, DUL, shallow               
 BN     0.13   9.3  0.60   76.  1.00  1.00 IB001 IB001 IB001 -99  
    5.       0.103 0.267 0.368 1.000  -99.  1.32 0.950  16.6  40.1   0.0 0.100  8.30-99.00-99.00-99.00
   15.       0.103 0.267 0.368 1.000  -99.  1.32 0.950  16.6  40.1   0.0 0.100  8.30-99.00-99.00-99.00
   30.       0.103 0.267 0.368 1.000  -99.  1.32 0.950  16.6  40.1   0.0 0.100  8.30-99.00-99.00-99.00
   45.       0.091 0.275 0.333 0.300  -99.  1.38 0.490  11.3  26.4   0.0 0.050  8.30-99.00-99.00-99.00
   60.       0.091 0.275 0.333 0.300  -99.  1.38 0.490  11.3  26.4   0.0 0.050  8.30-99.00-99.00-99.00
   70.       0.080 0.271 0.342 0.150  -99.  1.38 0.430  12.4  30.6   0.0 0.050  8.40-99.00-99.00-99.00
   80.       0.080 0.271 0.342 0.150  -99.  1.38 0.430  12.4  30.6   0.0 0.050  8.40-99.00-99.00-99.00
                    
    5.-99.00 -99.0 -99.0 -99.0 -99.0 -99.0 -99.0 -99.0 -99.0 -99.0-99.00 -99.0 -99.0 -99.0 -99.0 -99.0  -99.  -99.
   15.-99.00 -99.0 -99.0 -99.0 -99.0 -99.0 -99.0 -99.0 -99.0 -99.0-99.00 -99.0 -99.0 -99.0 -99.0 -99.0  -99.  -99.
   30.-99.00 -99.0 -99.0 -99.0 -99.0 -99.0 -99.0 -99.0 -99.0 -99.0-99.00 -99.0 -99.0 -99.0 -99.0 -99.0  -99.  -99.
   45.-99.00 -99.0 -99.0 -99.0 -99.0 -99.0 -99.0 -99.0 -99.0 -99.0-99.00 -99.0 -99.0 -99.0 -99.0 -99.0  -99.  -99.
   60.-99.00 -99.0 -99.0 -99.0 -99.0 -99.0 -99.0 -99.0 -99.0 -99.0-99.00 -99.0 -99.0 -99.0 -99.0 -99.0  -99.  -99.
   70.-99.00 -99.0 -99.0 -99.0 -99.0 -99.0 -99.0 -99.0 -99.0 -99.0-99.00 -99.0 -99.0 -99.0 -99.0 -99.0  -99.  -99.
   80.-99.00 -99.0 -99.0 -99.0 -99.0 -99.0 -99.0 -99.0 -99.0 -99.0-99.00 -99.0 -99.0 -99.0 -99.0 -99.0  -99.  -99.
                    
    5.-99.00-99.00-99.00-99.00
   15.-99.00-99.00-99.00-99.00
   30.-99.00-99.00-99.00-99.00
   45.-99.00-99.00-99.00-99.00
   60.-99.00-99.00-99.00-99.00
   70.-99.00-99.00-99.00-99.00
   80.-99.00-99.00-99.00-99.00
*CULTIVAR           
ZA0002 Prisma GC Avg    IB0001  280.0 0.300 789.0 700.0  6.05 48.00
