*MODEL INPUT FILE            B     1     1     1   999     0
*FILES              
MODEL          PTSUB048
FILEX          WAPA9402.PTX                                                                                 
FILEA          WAPA9402.PTA                                                                                 
FILET          WAPA9402.PTT                                                                                 
SPECIES        PTSUB048.SPE C:\DSSAT48\GENOTYPE\                                                            
ECOTYPE        PTSUB048.ECO C:\DSSAT48\GENOTYPE\                                                            
CULTIVAR       PTSUB048.CUL C:\DSSAT48\GENOTYPE\                                                            
PESTS          PTSUB048.PST C:\DSSAT48\PEST\                                                                
SOILS          WA.SOL       C:\DSSAT48\SOIL\                                                                
WEATHERW       WAPA9401.WTH C:\DSSAT48\Weather\                                                             
OUTPUT         OVERVIEW
*SIMULATION CONTROL 
                   1     1     S 1994060  2150 DEFAULT SIMULATION CONTR 
                   Y     Y     N     N     N     N     N     Y     M
                   M     M     E     R     S     C     R     1     G     R     2     D     0
                   R     R     R     R     R
                   N     Y     Y     1     Y     Y     Y     Y     N     N     Y     N     Y
!AUTOMATIC MANAGEM  
                   -99     -99   40.  100.   30.   40.   10.
                 30.  100.  100. GS000 IR001  10.0 1.000
                 30.   50.   25. FE001 GS000
                100.     1   20.
                     0     -99  100.    0.
*EXP.DETAILS        
  1WAPA9402 PT PATERSON, WASHINGTON - 1994                                 
*TREATMENTS         
  1 1 1 0 I1 T1 Russet Burbank     
*CULTIVARS          
   PT IB0003 Russet Burbank  
*FIELDS             
   WAPA0003 WAPA9401   0.0  -99.   -99  -99. 100.0   -99 S      -99. WAPA920016-99.00 -99.0
    -99.0000000000  -99.0000000000   -99.000               1.0  100.   1.0 -99.0   -99   -99
*INITIAL CONDITIONS 
   MZ    1994060   200     0  1.00  1.00 -99.0     0  0.21  0.00   95.   30.
      5. 0.260  5.00  4.00
     15. 0.260  5.00  4.00
     30. 0.304  4.00  3.00
     45. 0.280  2.00  2.00
     60. 0.280  2.00  2.00
*PLANTING DETAILS   
   1994095     -99   4.6   4.6     S     R   86.  -99.  15.0 2576.  -99. -99.0 -99.0  10.0
*IRRIGATION         
   0.950   30.   50.  100. GS000 IR001  10.0
   1994088 IR004  13.0
   1994105 IR004   6.4
   1994113 IR004   6.4
   1994119 IR004   6.4
   1994124 IR004   6.4
   1994126 IR004   6.4
   1994129 IR004   6.4
   1994130 IR004   6.4
   1994131 IR004   6.4
   1994132 IR004   6.4
   1994133 IR004   6.4
   1994134 IR004   6.4
   1994135 IR004   6.4
   1994145 IR004   6.4
   1994146 IR004  12.7
   1994147 IR004   6.4
   1994148 IR004   6.4
   1994149 IR004   6.4
   1994150 IR004   6.4
   1994151 IR004   6.4
   1994154 IR004   6.4
   1994155 IR004   6.4
   1994156 IR004   6.4
   1994158 IR004   6.4
   1994159 IR004   6.4
   1994161 IR004   6.4
   1994162 IR004   6.4
   1994163 IR004   6.4
   1994164 IR004   6.4
   1994165 IR004   6.4
   1994167 IR004   6.4
   1994168 IR004   6.4
   1994169 IR004   6.4
   1994170 IR004   6.4
   1994171 IR004   6.4
   1994172 IR004   6.4
   1994173 IR004   6.4
   1994174 IR004   6.4
   1994175 IR004   6.4
   1994176 IR004   6.4
   1994177 IR004   6.4
   1994179 IR004  12.7
   1994180 IR004   6.4
   1994181 IR004   6.4
   1994182 IR004   6.4
   1994183 IR004  12.7
   1994187 IR004  12.7
   1994188 IR004   6.4
   1994189 IR004   6.4
   1994190 IR004  12.7
   1994191 IR004   6.4
   1994192 IR004  12.7
   1994193 IR004   6.4
   1994194 IR004   6.4
   1994195 IR004   6.4
   1994196 IR004   6.4
   1994197 IR004   6.4
   1994198 IR004   6.4
   1994199 IR004   6.4
   1994200 IR004   6.4
   1994201 IR004   6.4
   1994202 IR004   6.4
   1994203 IR004   6.4
   1994204 IR004   6.4
   1994205 IR004   6.4
   1994206 IR004   6.4
   1994207 IR004   6.4
   1994208 IR004   6.4
   1994209 IR004   6.4
   1994210 IR004   6.4
   1994211 IR004   6.4
   1994212 IR004   6.4
   1994213 IR004   6.4
   1994214 IR004   6.4
   1994215 IR004   6.4
   1994216 IR004   6.4
   1994217 IR004   6.4
   1994218 IR004   6.4
   1994219 IR004   6.4
   1994220 IR004   6.4
   1994222 IR004   6.4
   1994223 IR004   6.4
   1994224 IR004   6.4
   1994226 IR004   6.4
   1994227 IR004   6.4
*FERTILIZERS        
   1994081 FE005 AP002   10.  112.  -99.  -99.  -99.  -99.   -99
   1994141 FE005 AP005    1.   22.  -99.  -99.  -99.  -99.   -99
   1994145 FE005 AP005    1.   28.  -99.  -99.  -99.  -99.   -99
   1994149 FE005 AP005    1.   28.  -99.  -99.  -99.  -99.   -99
   1994154 FE005 AP005    1.   28.  -99.  -99.  -99.  -99.   -99
   1994161 FE005 AP005    1.   28.  -99.  -99.  -99.  -99.   -99
   1994167 FE005 AP005    1.   28.  -99.  -99.  -99.  -99.   -99
   1994172 FE005 AP005    1.   28.  -99.  -99.  -99.  -99.   -99
   1994180 FE005 AP005    1.   28.  -99.  -99.  -99.  -99.   -99
   1994188 FE005 AP005    1.   28.  -99.  -99.  -99.  -99.   -99
   1994193 FE005 AP005    1.   29.  -99.  -99.  -99.  -99.   -99
   1994201 FE005 AP005    1.   28.  -99.  -99.  -99.  -99.   -99
   1994207 FE005 AP005    1.   14.  -99.  -99.  -99.  -99.   -99
   1994215 FE005 AP005    1.   28.  -99.  -99.  -99.  -99.   -99
   1994222 FE005 AP005    1.   14.  -99.  -99.  -99.  -99.   -99
*RESIDUES           
   1994060 RE203  1500  1.06  0.23  1.75   30.   15. AP002
*CHEMICALS          
*TILLAGE            
   1994060 TI011  15.0
   1994095 TI033  15.0
   1994111 TI013  15.0
   1994112 TI026  15.0
*ENVIRONMENT        
*HARVEST            
   1994227 GS000   -99   -99  100.    0.
*SOIL               
 WAPA920016  -99         S      -99.   Quincy Sand                                     
 Paterson    USA          45.830-119.870 Fine sand                                         
 BN     0.13   6.2  0.80   64.  1.00  1.00 IB001 IB001 IB001 -99  
    5.       0.050 0.150 0.300 1.000  21.0  1.55 0.500 -99.0 -99.0 -99.0  -9.0  7.60-99.00-99.00-99.00
   15.       0.050 0.150 0.300 1.000  21.0  1.55 0.500 -99.0 -99.0 -99.0  -9.0  7.60-99.00-99.00-99.00
   30.       0.050 0.150 0.300 0.640  21.0  1.55 0.500 -99.0 -99.0 -99.0  -9.0  8.00-99.00-99.00-99.00
   45.       0.050 0.150 0.300 0.410  21.0  1.55 0.500 -99.0 -99.0 -99.0  -9.0  8.30-99.00-99.00-99.00
   60.       0.050 0.150 0.300 0.410  21.0  1.55 0.500 -99.0 -99.0 -99.0  -9.0  8.30-99.00-99.00-99.00
                    
    5.-99.00 -99.0 -99.0 -99.0 -99.0 -99.0 -99.0 -99.0 -99.0 -99.0-99.00 -99.0 -99.0 -99.0 -99.0 -99.0  -99.  -99.
   15.-99.00 -99.0 -99.0 -99.0 -99.0 -99.0 -99.0 -99.0 -99.0 -99.0-99.00 -99.0 -99.0 -99.0 -99.0 -99.0  -99.  -99.
   30.-99.00 -99.0 -99.0 -99.0 -99.0 -99.0 -99.0 -99.0 -99.0 -99.0-99.00 -99.0 -99.0 -99.0 -99.0 -99.0  -99.  -99.
   45.-99.00 -99.0 -99.0 -99.0 -99.0 -99.0 -99.0 -99.0 -99.0 -99.0-99.00 -99.0 -99.0 -99.0 -99.0 -99.0  -99.  -99.
   60.-99.00 -99.0 -99.0 -99.0 -99.0 -99.0 -99.0 -99.0 -99.0 -99.0-99.00 -99.0 -99.0 -99.0 -99.0 -99.0  -99.  -99.
                    
    5.-99.00-99.00-99.00-99.00
   15.-99.00-99.00-99.00-99.00
   30.-99.00-99.00-99.00-99.00
   45.-99.00-99.00-99.00-99.00
   60.-99.00-99.00-99.00-99.00
*CULTIVAR           
IB0003 Russet Burbank   IB0001  1522.  21.6   0.5   0.3  18.8
