*MODEL INPUT FILE            B     1     1     1   999     0
*FILES              
MODEL          TRARO048
FILEX          MTIS9201.TRX                                                                                 
FILEA          MTIS9201.TRA                                                                                 
FILET          MTIS9201.TRT                                                                                 
SPECIES        TRARO048.SPE C:\DSSAT48\GENOTYPE\                                                            
ECOTYPE        TRARO048.ECO C:\DSSAT48\GENOTYPE\                                                            
CULTIVAR       TRARO048.CUL C:\DSSAT48\GENOTYPE\                                                            
PESTS          TRARO048.PST C:\DSSAT48\PEST\                                                                
SOILS          SOIL.SOL     C:\DSSAT48\SOIL\                                                                
WEATHERW       MTIS9201.WTH C:\DSSAT48\Weather\                                                             
OUTPUT         OVERVIEW
*SIMULATION CONTROL 
                   1     1     S 1992167  2150 TARO VAR EXPT, PUERTO RI 
                   N     N     N     N     N     N     N     N     M
                   M     M     E     R     S     C     R     1     G     R     2     D     0
                   R     R     R     R     M
                   N     Y     Y     1     Y     N     Y     Y     N     N     Y     N     N
!AUTOMATIC MANAGEM  
                   -99     -99   40.  100.   30.   40.   10.
                 30.   50.  100. GS000 IR001  10.0 1.000
                 30.   50.   25. FE001 GS000
                100.     1   20.
                     0     -99  100.    0.
*EXP.DETAILS        
  1MTIS9201 TR TARO VAR EXPT, PUERTO RICO                                  
*TREATMENTS         
  1 1 1 0 BLANCA Cultivars         
*CULTIVARS          
   TR IB0008 BLANCA          
*FIELDS             
   MTIS0001 MTIS9201   0.0    0. DR000    0. 100.0 00000 -99    -99. IBAR910043-99.00 -99.0
    -99.0000000000  -99.0000000000   -99.000               1.0  100.   1.0 -99.0   -99   -99
*INITIAL CONDITIONS 
   TR    1992167   100   -99  1.00  1.00 -99.0  1000  0.53  0.00    0.   20.
      5. 0.407   0.0   0.0
     15. 0.407   0.0   0.0
     22. 0.407   0.0   0.0
     35. 0.498   0.0   0.0
     48. 0.498   0.0   0.0
     63. 0.494   0.0   0.0
     78. 0.494   0.0   0.0
     97. 0.502   0.0   0.0
    116. 0.493   0.0   0.0
    135. 0.493   0.0   0.0
    151. 0.463   0.0   0.0
    167. 0.463   0.0   0.0
    197. 0.480   0.0   0.0
    227. 0.480   0.0   0.0
*PLANTING DETAILS   
   1992177     -99   2.4   2.4     S     R   91.    0.  13.0  -99.  -99. -99.0 -99.0   0.0
*IRRIGATION         
   1.000   30.   75.  -99. GS000 IR001  10.0
   1992177 IR001   6.0
   1992178 IR001  38.0
   1992181 IR001   6.0
   1992184 IR001  38.0
   1992188 IR001  13.0
   1992192 IR001   1.0
   1992197 IR001   2.0
   1992198 IR001   2.0
   1992209 IR001   2.0
   1992213 IR001   2.0
   1992216 IR001   2.0
   1992218 IR001   2.0
   1992223 IR001   3.0
   1992224 IR001   2.0
   1992232 IR001   2.0
   1992246 IR001   4.0
   1992248 IR001   3.0
   1992255 IR001   3.0
   1992260 IR001   4.0
   1992262 IR001   1.0
   1992265 IR001   3.0
   1992274 IR001   3.0
   1992276 IR001   3.0
   1992279 IR001   3.0
   1992281 IR001   4.0
   1992283 IR001   9.0
   1992286 IR001   4.0
   1992290 IR001   6.0
   1992293 IR001   6.0
   1992295 IR001   3.0
   1992297 IR001   6.0
   1992304 IR001   1.0
   1992311 IR001   4.0
   1992314 IR001   3.0
   1992316 IR001   4.0
   1992323 IR001   2.0
   1992325 IR001   4.0
   1992330 IR001   1.0
   1992339 IR001   3.0
   1992342 IR001   3.0
   1992344 IR001   6.0
   1992346 IR001   4.0
   1992353 IR001   3.0
   1992366 IR001   1.0
   1993005 IR001   2.0
   1993008 IR001   1.0
   1993011 IR001   2.0
   1993015 IR001   4.0
   1993019 IR001   3.0
   1993022 IR001   3.0
   1993027 IR001   4.0
   1993036 IR001   2.0
   1993041 IR001   4.0
   1993043 IR001   4.0
   1993047 IR001   2.0
   1993050 IR001   5.0
   1993053 IR001   2.0
   1993055 IR001   3.0
   1993057 IR001   3.0
   1993060 IR001   3.0
   1993061 IR001   3.0
   1993063 IR001   3.0
   1993067 IR001   3.0
   1993068 IR001   3.0
   1993071 IR001   3.0
   1993074 IR001   3.0
   1993076 IR001   3.0
   1993078 IR001   5.0
   1993081 IR001   3.0
   1993083 IR001   3.0
   1993092 IR001   3.0
   1993106 IR001   3.0
   1993108 IR001   3.0
   1993109 IR001   4.0
   1993132 IR001   3.0
   1993306 IR001   2.0
*FERTILIZERS        
   1992209 FE017   001    5.    4.  -99.  -99.  -99.  -99.   -99
   1992209 FE005   001    5.    4.  -99.  -99.  -99.  -99.   -99
   1992223 FE017   001    5.    4.  -99.  -99.  -99.  -99.   -99
   1992223 FE005   001    5.    4.  -99.  -99.  -99.  -99.   -99
   1992246 FE017   001    5.    4.  -99.  -99.  -99.  -99.   -99
   1992246 FE005   001    5.    4.  -99.  -99.  -99.  -99.   -99
   1992260 FE017   001    5.    4.  -99.  -99.  -99.  -99.   -99
   1992260 FE005   001    5.    4.  -99.  -99.  -99.  -99.   -99
   1992274 FE017   001    5.    4.  -99.  -99.  -99.  -99.   -99
   1992274 FE005   001    5.    4.  -99.  -99.  -99.  -99.   -99
   1992286 FE017   001    5.    4.  -99.  -99.  -99.  -99.   -99
   1992286 FE005   001    5.    4.  -99.  -99.  -99.  -99.   -99
   1992304 FE017   001    5.    4.  -99.  -99.  -99.  -99.   -99
   1992304 FE005   001    5.    4.  -99.  -99.  -99.  -99.   -99
   1992307 FE017   001    5.    4.  -99.  -99.  -99.  -99.   -99
   1992307 FE005   001    5.    4.  -99.  -99.  -99.  -99.   -99
   1992311 FE017   001    5.    4.  -99.  -99.  -99.  -99.   -99
   1992311 FE005   001    5.    4.  -99.  -99.  -99.  -99.   -99
   1992325 FE017   001    5.    4.  -99.  -99.  -99.  -99.   -99
   1992330 FE005   001    5.    2.  -99.  -99.  -99.  -99.   -99
   1992339 FE017   001    5.    4.  -99.  -99.  -99.  -99.   -99
   1992339 FE005   001    5.    4.  -99.  -99.  -99.  -99.   -99
   1992353 FE017   001    5.    4.  -99.  -99.  -99.  -99.   -99
   1992353 FE005   001    5.    4.  -99.  -99.  -99.  -99.   -99
   1992366 FE017   001    5.    2.  -99.  -99.  -99.  -99.   -99
   1992366 FE005   001    5.    2.  -99.  -99.  -99.  -99.   -99
   1993008 FE017   001    5.    2.  -99.  -99.  -99.  -99.   -99
   1993015 FE017   001    5.    2.  -99.  -99.  -99.  -99.   -99
   1993015 FE005   001    5.    2.  -99.  -99.  -99.  -99.   -99
   1993018 FE005   001    5.    2.  -99.  -99.  -99.  -99.   -99
   1993022 FE017   001    5.    2.  -99.  -99.  -99.  -99.   -99
   1993022 FE005   001    5.    2.  -99.  -99.  -99.  -99.   -99
   1993036 FE017   001    5.    2.  -99.  -99.  -99.  -99.   -99
   1993036 FE005   001    5.    2.  -99.  -99.  -99.  -99.   -99
   1993041 FE017   001    5.    2.  -99.  -99.  -99.  -99.   -99
   1993041 FE005   001    5.    2.  -99.  -99.  -99.  -99.   -99
   1993057 FE017   001    5.    4.  -99.  -99.  -99.  -99.   -99
   1993057 FE005   001    5.    4.  -99.  -99.  -99.  -99.   -99
   1993078 FE017   001    5.    2.  -99.  -99.  -99.  -99.   -99
   1993078 FE005   001    5.    2.  -99.  -99.  -99.  -99.   -99
   1993109 FE017   001    5.    2.  -99.  -99.  -99.  -99.   -99
   1993109 FE005   001    5.    2.  -99.  -99.  -99.  -99.   -99
*RESIDUES           
*CHEMICALS          
*TILLAGE            
*ENVIRONMENT        
*HARVEST            
*SOIL               
 IBAR910043  87P294      -99    -99.   IBAR910043                                      
 -99         -99          -0.009  -0.099 VERY-FINE, KAOLINITIC, ISOHYPERTHERMIC XANTHIC KAN
 -99    0.13   6.9  0.60   76.  0.80  1.00 SA001 SA001 SA001 -99  
    5.       0.305 0.407 0.422 0.500  -99.  1.39 2.010 -99.0 -99.0 -99.0 -99.0  6.00-99.00-99.00-99.00
   15.       0.305 0.407 0.422 0.500  -99.  1.39 2.010 -99.0 -99.0 -99.0 -99.0  6.00-99.00-99.00-99.00
   22.       0.305 0.407 0.422 0.500  -99.  1.39 2.010 -99.0 -99.0 -99.0 -99.0  6.00-99.00-99.00-99.00
   35.       0.389 0.498 0.513 0.500  -99.  1.33 0.720 -99.0 -99.0 -99.0 -99.0  6.50-99.00-99.00-99.00
   48.       0.389 0.498 0.513 0.500  -99.  1.33 0.720 -99.0 -99.0 -99.0 -99.0  6.50-99.00-99.00-99.00
   63.       0.386 0.494 0.509 0.200  -99.  1.41 0.560 -99.0 -99.0 -99.0 -99.0  6.50-99.00-99.00-99.00
   78.       0.386 0.494 0.509 0.200  -99.  1.41 0.560 -99.0 -99.0 -99.0 -99.0  6.50-99.00-99.00-99.00
   97.       0.394 0.502 0.517 0.200  -99.  1.26 0.430 -99.0 -99.0 -99.0 -99.0  6.50-99.00-99.00-99.00
  116.       0.383 0.493 0.508 0.200  -99.  1.50 0.230 -99.0 -99.0 -99.0 -99.0  6.50-99.00-99.00-99.00
  135.       0.383 0.493 0.508 0.200  -99.  1.50 0.230 -99.0 -99.0 -99.0 -99.0  6.50-99.00-99.00-99.00
  151.       0.350 0.463 0.478 0.200  -99.  1.52 0.180 -99.0 -99.0 -99.0 -99.0  6.50-99.00-99.00-99.00
  167.       0.350 0.463 0.478 0.200  -99.  1.52 0.180 -99.0 -99.0 -99.0 -99.0  6.50-99.00-99.00-99.00
  197.       0.372 0.480 0.495 0.200  -99.  1.65 0.120 -99.0 -99.0 -99.0 -99.0  6.50-99.00-99.00-99.00
  227.       0.372 0.480 0.495 0.200  -99.  1.65 0.120 -99.0 -99.0 -99.0 -99.0  6.50-99.00-99.00-99.00
                    
    5.-99.00 -99.0 -99.0 -99.0 -99.0 -99.0 -99.0 -99.0 -99.0 -99.0-99.00 -99.0 -99.0 -99.0 -99.0 -99.0  -99.  -99.
   15.-99.00 -99.0 -99.0 -99.0 -99.0 -99.0 -99.0 -99.0 -99.0 -99.0-99.00 -99.0 -99.0 -99.0 -99.0 -99.0  -99.  -99.
   22.-99.00 -99.0 -99.0 -99.0 -99.0 -99.0 -99.0 -99.0 -99.0 -99.0-99.00 -99.0 -99.0 -99.0 -99.0 -99.0  -99.  -99.
   35.-99.00 -99.0 -99.0 -99.0 -99.0 -99.0 -99.0 -99.0 -99.0 -99.0-99.00 -99.0 -99.0 -99.0 -99.0 -99.0  -99.  -99.
   48.-99.00 -99.0 -99.0 -99.0 -99.0 -99.0 -99.0 -99.0 -99.0 -99.0-99.00 -99.0 -99.0 -99.0 -99.0 -99.0  -99.  -99.
   63.-99.00 -99.0 -99.0 -99.0 -99.0 -99.0 -99.0 -99.0 -99.0 -99.0-99.00 -99.0 -99.0 -99.0 -99.0 -99.0  -99.  -99.
   78.-99.00 -99.0 -99.0 -99.0 -99.0 -99.0 -99.0 -99.0 -99.0 -99.0-99.00 -99.0 -99.0 -99.0 -99.0 -99.0  -99.  -99.
   97.-99.00 -99.0 -99.0 -99.0 -99.0 -99.0 -99.0 -99.0 -99.0 -99.0-99.00 -99.0 -99.0 -99.0 -99.0 -99.0  -99.  -99.
  116.-99.00 -99.0 -99.0 -99.0 -99.0 -99.0 -99.0 -99.0 -99.0 -99.0-99.00 -99.0 -99.0 -99.0 -99.0 -99.0  -99.  -99.
  135.-99.00 -99.0 -99.0 -99.0 -99.0 -99.0 -99.0 -99.0 -99.0 -99.0-99.00 -99.0 -99.0 -99.0 -99.0 -99.0  -99.  -99.
  151.-99.00 -99.0 -99.0 -99.0 -99.0 -99.0 -99.0 -99.0 -99.0 -99.0-99.00 -99.0 -99.0 -99.0 -99.0 -99.0  -99.  -99.
  167.-99.00 -99.0 -99.0 -99.0 -99.0 -99.0 -99.0 -99.0 -99.0 -99.0-99.00 -99.0 -99.0 -99.0 -99.0 -99.0  -99.  -99.
  197.-99.00 -99.0 -99.0 -99.0 -99.0 -99.0 -99.0 -99.0 -99.0 -99.0-99.00 -99.0 -99.0 -99.0 -99.0 -99.0  -99.  -99.
  227.-99.00 -99.0 -99.0 -99.0 -99.0 -99.0 -99.0 -99.0 -99.0 -99.0-99.00 -99.0 -99.0 -99.0 -99.0 -99.0  -99.  -99.
                    
    5.-99.00-99.00-99.00-99.00
   15.-99.00-99.00-99.00-99.00
   22.-99.00-99.00-99.00-99.00
   35.-99.00-99.00-99.00-99.00
   48.-99.00-99.00-99.00-99.00
   63.-99.00-99.00-99.00-99.00
   78.-99.00-99.00-99.00-99.00
   97.-99.00-99.00-99.00-99.00
  116.-99.00-99.00-99.00-99.00
  135.-99.00-99.00-99.00-99.00
  151.-99.00-99.00-99.00-99.00
  167.-99.00-99.00-99.00-99.00
  197.-99.00-99.00-99.00-99.00
  227.-99.00-99.00-99.00-99.00
*CULTIVAR           
IB0008 BLANCA           IB0001  925. 1368. 1589.  858.  1.39  1.17   1.1 150.0 120.0
