*MODEL INPUT FILE            B     1     1     1   999     0
*FILES              
MODEL          MZCER048
FILEX          GAGR0201.MZX                                                                                 
FILEA          GAGR0201.MZA                                                                                 
FILET          GAGR0201.MZT                                                                                 
SPECIES        MZCER048.SPE C:\DSSAT48\GENOTYPE\                                                            
ECOTYPE        MZCER048.ECO C:\DSSAT48\GENOTYPE\                                                            
CULTIVAR       MZCER048.CUL C:\DSSAT48\GENOTYPE\                                                            
PESTS          MZCER048.PST C:\DSSAT48\PEST\                                                                
SOILS          SOIL.SOL     C:\DSSAT48\SOIL\                                                                
WEATHERW       GAGR9626.WTH C:\DSSAT48\Weather\                                                             
OUTPUT         OVERVIEW
*SIMULATION CONTROL 
                   1     1     S 2002274  2150 DEFAULT SIMULATION CONTR 
                   Y     Y     N     N     N     N     N     N     M
                   M     M     E     R     S     C     R     1     G     R     2     D     0
                   R     A     R     R     R
                   N     Y     Y     1     Y     N     N     N     N     N     Y     N     N
!AUTOMATIC MANAGEM  
                   -99     -99   40.  100.   30.   40.   10.
                 30.   50.  100. GS000 IR001  10.0 1.000
                 30.   50.   25. FE001 GS000
                100.     1   20.
                     0     -99  100.    0.
*EXP.DETAILS        
  1GAGR0201 MZ 2002 ENVIROTRON CONTROL STUDY                               
*TREATMENTS         
  1 1 1 0 25/15 T; 400 ppm         
*CULTIVARS          
   MZ IB0071 PIO 31G98       
*FIELDS             
   GA000000 GAGR9626   0.0  -99. DR000  -99. 100.0     0 S       40. IBMZ910114-99.00 -99.0
    -99.0000000000  -99.0000000000   -99.000               1.0   99.  99.0  99.0   -99   -99
*INITIAL CONDITIONS 
   SB    2002303     0     0  1.00  1.00 -99.0     0  0.00  0.00  100.    0.
      5. 0.210 0.300  2.30
     15. 0.210 0.300  2.30
     30. 0.210 0.300  2.30
     45. 0.210 0.300  2.30
     60. 0.210 0.300  2.30
     90. 0.210 0.010 0.010
    120. 0.210 0.010 0.010
    150. 0.210 0.010 0.010
    180. 0.210 0.010 0.010
*PLANTING DETAILS   
   2002303 2002308  16.0  16.0     S     R   35.  -99.   4.0  -99.  -99. -99.0 -99.0 -99.0
*IRRIGATION         
   1.000    0.    0.    0. GS000 IR001   0.0
*FERTILIZERS        
   2002303 FE005 AP004   10.   30.  -99.  -99.  -99.  -99.   -99
   2002314 FE005 AP004   10.   30.  -99.  -99.  -99.  -99.   -99
   2002324 FE005 AP004   10.   30.  -99.  -99.  -99.  -99.   -99
   2002334 FE005 AP004   10.   30.  -99.  -99.  -99.  -99.   -99
   2002344 FE005 AP004   10.   30.  -99.  -99.  -99.  -99.   -99
*RESIDUES           
*CHEMICALS          
*TILLAGE            
*ENVIRONMENT        
   2002303 R16.0 R18.7 R25.0 R15.0 A 0.0 R 400 A 0.0 A 0.0
*HARVEST            
   2002347 GS000     C     A  100.  100.
*SOIL               
 IBMZ910114  Gainesville S       40.   Millhopper Fine Sand                            
 Gainesville USA          29.600 -82.370 Loamy,silic,hyperth Arenic Paleudult              
 -99    0.18   2.0  0.65   60.  1.00  0.72 IB001 IB001 IB001 -99  
    5.       0.026 0.096 0.230 1.000  -99.  1.30 2.000 -99.0 -99.0 -99.0  -9.0  7.00-99.00 20.00-99.00
   15.       0.025 0.086 0.230 1.000  -99.  1.30 1.000 -99.0 -99.0 -99.0  -9.0  7.00-99.00-99.00-99.00
   30.       0.025 0.086 0.230 0.700  -99.  1.40 1.000 -99.0 -99.0 -99.0  -9.0  7.00-99.00-99.00-99.00
   45.       0.025 0.086 0.230 0.300  -99.  1.40 0.500 -99.0 -99.0 -99.0  -9.0  7.00-99.00-99.00-99.00
   60.       0.025 0.086 0.230 0.300  -99.  1.40 0.500 -99.0 -99.0 -99.0  -9.0  7.00-99.00-99.00-99.00
   90.       0.028 0.090 0.230 0.050  -99.  1.45 0.100 -99.0 -99.0 -99.0  -9.0  7.00-99.00-99.00-99.00
  120.       0.028 0.090 0.230 0.030  -99.  1.45 0.100 -99.0 -99.0 -99.0  -9.0  7.00-99.00-99.00-99.00
  150.       0.029 0.130 0.230 0.002  -99.  1.45 0.040 -99.0 -99.0 -99.0  -9.0  7.00-99.00-99.00-99.00
  180.       0.070 0.258 0.360 0.000  -99.  1.20 0.240 -99.0 -99.0 -99.0  -9.0  7.00-99.00-99.00-99.00
                    
    5.-99.00 -99.0 -99.0 -99.0 -99.0 -99.0 -99.0 -99.0 -99.0 -99.0-99.00 -99.0 -99.0 -99.0 -99.0 -99.0  -99.  -99.
   15.-99.00 -99.0 -99.0 -99.0 -99.0 -99.0 -99.0 -99.0 -99.0 -99.0-99.00 -99.0 -99.0 -99.0 -99.0 -99.0  -99.  -99.
   30.-99.00 -99.0 -99.0 -99.0 -99.0 -99.0 -99.0 -99.0 -99.0 -99.0-99.00 -99.0 -99.0 -99.0 -99.0 -99.0  -99.  -99.
   45.-99.00 -99.0 -99.0 -99.0 -99.0 -99.0 -99.0 -99.0 -99.0 -99.0-99.00 -99.0 -99.0 -99.0 -99.0 -99.0  -99.  -99.
   60.-99.00 -99.0 -99.0 -99.0 -99.0 -99.0 -99.0 -99.0 -99.0 -99.0-99.00 -99.0 -99.0 -99.0 -99.0 -99.0  -99.  -99.
   90.-99.00 -99.0 -99.0 -99.0 -99.0 -99.0 -99.0 -99.0 -99.0 -99.0-99.00 -99.0 -99.0 -99.0 -99.0 -99.0  -99.  -99.
  120.-99.00 -99.0 -99.0 -99.0 -99.0 -99.0 -99.0 -99.0 -99.0 -99.0-99.00 -99.0 -99.0 -99.0 -99.0 -99.0  -99.  -99.
  150.-99.00 -99.0 -99.0 -99.0 -99.0 -99.0 -99.0 -99.0 -99.0 -99.0-99.00 -99.0 -99.0 -99.0 -99.0 -99.0  -99.  -99.
  180.-99.00 -99.0 -99.0 -99.0 -99.0 -99.0 -99.0 -99.0 -99.0 -99.0-99.00 -99.0 -99.0 -99.0 -99.0 -99.0  -99.  -99.
                    
    5.-99.00-99.00-99.00-99.00
   15.-99.00-99.00-99.00-99.00
   30.-99.00-99.00-99.00-99.00
   45.-99.00-99.00-99.00-99.00
   60.-99.00-99.00-99.00-99.00
   90.-99.00-99.00-99.00-99.00
  120.-99.00-99.00-99.00-99.00
  150.-99.00-99.00-99.00-99.00
  180.-99.00-99.00-99.00-99.00
*CULTIVAR           
IB0071 PIO 31G98        IB0003  165.0 0.750 680.0 820.4  6.60 48.00
