*MODEL INPUT FILE            B     1     1     1   999     0
*FILES              
MODEL          CRGRO048
FILEX          IBPF8601.CBX                                                                                 
FILEA          IBPF8601.CBA                                                                                 
FILET          IBPF8601.CBT                                                                                 
SPECIES        CBGRO048.SPE C:\DSSAT48\GENOTYPE\                                                            
ECOTYPE        CBGRO048.ECO C:\DSSAT48\GENOTYPE\                                                            
CULTIVAR       CBGRO048.CUL C:\DSSAT48\GENOTYPE\                                                            
PESTS          CBGRO048.PST C:\DSSAT48\PEST\                                                                
SOILS          SOIL.SOL     C:\DSSAT48\SOIL\                                                                
WEATHERW       IBPF8601.WTH C:\DSSAT48\Weather\                                                             
OUTPUT         OVERVIEW
*SIMULATION CONTROL 
                   1     1     S 1986014  2150 JAN CG NO-STRESS         
                   N     N     N     N     N     N     N     N     M
                   M     M     E     R     S     L     R     1     G     R     2     D     0
                   R     N     N     N     R
                   N     Y     Y     5     Y     N     Y     Y     N     N     Y     N     N
!AUTOMATIC MANAGEM  
                   -99     -99   40.  100.   30.   40.   10.
                 30.   50.  100. GS000 IR001  10.0 0.750
                 30.   50.   25. FE001 GS000
                100.     1   20.
                     0     -99  100.    0.
*EXP.DETAILS        
  1IBPF8601 CB PULEHU EXP. FARM, MAUI, HI                                  
*TREATMENTS         
  1 1 0 0 JAN   46 CM ROWSPACE     
*CULTIVARS          
   CB 990002 CG        4     
*FIELDS             
   IBPF8601 IBPF8601   0.0    0. DR000    0. 100.0 00000 -99    160. IB00830003-99.00 -99.0
    -99.0000000000  -99.0000000000   -99.000               1.0  100.   1.0 -99.0   -99   -99
*INITIAL CONDITIONS 
   SB    1986014     1     0  1.00  1.00 -99.0   -99 -9.00 -9.00  -99.  -99.
      5. 0.266   0.0   0.0
     15. 0.266   0.0   0.0
     23. 0.266   0.0   0.0
     31. 0.266   0.0   0.0
     46. 0.309   0.0   0.0
     58. 0.334   0.0   0.0
     73. 0.262   0.0   0.0
     88. 0.262   0.0   0.0
    112. 0.179   0.0   0.0
    136. 0.179   0.0   0.0
    160. 0.179   0.0   0.0
*PLANTING DETAILS   
   1986014     -99   5.7   5.7     T     R   46.    0.   5.0   10.   13.  22.2 -99.0 -99.0
*IRRIGATION         
   1.000    0.    0.    0. GS000 IR001   0.0
*FERTILIZERS        
*RESIDUES           
*CHEMICALS          
*TILLAGE            
*ENVIRONMENT        
*HARVEST            
   1986091 GS000   -99   -99  100.    0.
*SOIL               
 IB00830003  SCS         -99    160.   Unknown (Pulehu Experimental Station)           
 PULEHU EXFM US           20.780 156.333 TORROXIC HAPLUSTOLL, FINE, KAOLINITIC, ISOHYPERTHE
 BN     0.13  10.1  0.60   94.  1.00  1.00 IB001 IB001 IB001 -99  
    5.       0.142 0.266 0.396 1.000  -99.  0.95 3.980  26.0  48.6  11.0 0.390  6.10  5.30 38.90-99.00
   15.       0.142 0.266 0.396 1.000  -99.  0.95 3.980  26.0  48.6  11.0 0.390  6.10  5.30 38.90-99.00
   23.       0.142 0.266 0.396 1.000  -99.  0.95 3.980  26.0  48.6  11.0 0.390  6.10  5.30 38.90-99.00
   31.       0.142 0.266 0.396 1.000  -99.  0.95 3.980  26.0  48.6  11.0 0.390  6.10  5.30 38.90-99.00
   46.       0.178 0.309 0.408 1.000  -99.  1.01 2.050  32.6  49.9   3.0 0.220  6.60  5.90 24.50-99.00
   58.       0.210 0.334 0.402 1.000  -99.  1.08 1.010  41.6  45.4   9.0 0.090  6.10  5.40 15.50-99.00
   73.       0.162 0.262 0.402 1.000  -99.  1.11 0.870  40.2  46.8  38.0 -99.0  5.60  4.80 13.90-99.00
   88.       0.162 0.262 0.402 1.000  -99.  1.11 0.870  40.2  46.8  38.0 -99.0  5.60  4.80 13.90-99.00
  112.       0.098 0.179 0.410 0.500  -99.  0.74 0.920  28.3  52.7  56.0 -99.0  5.80  4.70 18.20-99.00
  136.       0.098 0.179 0.410 0.500  -99.  0.74 0.920  28.3  52.7  56.0 -99.0  5.80  4.70 18.20-99.00
  160.       0.098 0.179 0.410 0.500  -99.  0.74 0.920  28.3  52.7  56.0 -99.0  5.80  4.70 18.20-99.00
                    
    5.-99.00 -99.0 -99.0 -99.0 -99.0 -99.0 -99.0 -99.0 -99.0 -99.0-99.00 -99.0 -99.0 -99.0 -99.0 -99.0  -99.  -99.
   15.-99.00 -99.0 -99.0 -99.0 -99.0 -99.0 -99.0 -99.0 -99.0 -99.0-99.00 -99.0 -99.0 -99.0 -99.0 -99.0  -99.  -99.
   23.-99.00 -99.0 -99.0 -99.0 -99.0 -99.0 -99.0 -99.0 -99.0 -99.0-99.00 -99.0 -99.0 -99.0 -99.0 -99.0  -99.  -99.
   31.-99.00 -99.0 -99.0 -99.0 -99.0 -99.0 -99.0 -99.0 -99.0 -99.0-99.00 -99.0 -99.0 -99.0 -99.0 -99.0  -99.  -99.
   46.-99.00 -99.0 -99.0 -99.0 -99.0 -99.0 -99.0 -99.0 -99.0 -99.0-99.00 -99.0 -99.0 -99.0 -99.0 -99.0  -99.  -99.
   58.-99.00 -99.0 -99.0 -99.0 -99.0 -99.0 -99.0 -99.0 -99.0 -99.0-99.00 -99.0 -99.0 -99.0 -99.0 -99.0  -99.  -99.
   73.-99.00 -99.0 -99.0 -99.0 -99.0 -99.0 -99.0 -99.0 -99.0 -99.0-99.00 -99.0 -99.0 -99.0 -99.0 -99.0  -99.  -99.
   88.-99.00 -99.0 -99.0 -99.0 -99.0 -99.0 -99.0 -99.0 -99.0 -99.0-99.00 -99.0 -99.0 -99.0 -99.0 -99.0  -99.  -99.
  112.-99.00 -99.0 -99.0 -99.0 -99.0 -99.0 -99.0 -99.0 -99.0 -99.0-99.00 -99.0 -99.0 -99.0 -99.0 -99.0  -99.  -99.
  136.-99.00 -99.0 -99.0 -99.0 -99.0 -99.0 -99.0 -99.0 -99.0 -99.0-99.00 -99.0 -99.0 -99.0 -99.0 -99.0  -99.  -99.
  160.-99.00 -99.0 -99.0 -99.0 -99.0 -99.0 -99.0 -99.0 -99.0 -99.0-99.00 -99.0 -99.0 -99.0 -99.0 -99.0  -99.  -99.
                    
    5.-99.00-99.00-99.00-99.00
   15.-99.00-99.00-99.00-99.00
   23.-99.00-99.00-99.00-99.00
   31.-99.00-99.00-99.00-99.00
   46.-99.00-99.00-99.00-99.00
   58.-99.00-99.00-99.00-99.00
   73.-99.00-99.00-99.00-99.00
   88.-99.00-99.00-99.00-99.00
  112.-99.00-99.00-99.00-99.00
  136.-99.00-99.00-99.00-99.00
  160.-99.00-99.00-99.00-99.00
*CULTIVAR           
990002 CG        4      CB0402 13.09 0.000 27.00  6.00 13.00 55.00 40.00 1.030 220.0  50.0  0.75 0.190 23.00  2.20 10.00  10.0 0.180 0.020
