*MODEL INPUT FILE            B     1     1     1   999     0
*FILES              
MODEL          CRGRO048
FILEX          WASP0201.LTX                                                                                 
FILEA          WASP0201.LTA                                                                                 
FILET          WASP0201.LTT                                                                                 
SPECIES        LTGRO048.SPE C:\DSSAT48\GENOTYPE\                                                            
ECOTYPE        LTGRO048.ECO C:\DSSAT48\GENOTYPE\                                                            
CULTIVAR       LTGRO048.CUL C:\DSSAT48\GENOTYPE\                                                            
PESTS          LTGRO048.PST C:\DSSAT48\PEST\                                                                
SOILS          CF.SOL       C:\DSSAT48\SOIL\                                                                
WEATHERW       WAPU9810.WTH C:\DSSAT48\Weather\                                                             
OUTPUT         OVERVIEW
*SIMULATION CONTROL 
                   1     1     S 2001230  2150 WSU small grain trials   
                   Y     Y     Y     N     N     N     N     N     M
                   M     M     E     F     S     L     R     1     P     R     2     D     0
                   R     R     R     N     M
                   N     Y     Y     1     Y     Y     Y     Y     N     N     Y     N     N
!AUTOMATIC MANAGEM  
                   -99     -99   40.  100.   30.   40.   10.
                 30.   50.  100. GS000 IR001  10.0 1.000
                 30.   50.   25. FE001 GS000
                100.     1   20.
                     0     -99  100.    0.
*EXP.DETAILS        
  1WASP0201 LT WINTER LENTIL AT WSU, WASHINGTON 2002-2014                  
*TREATMENTS         
  1 1 1 0 2002, Morton             
*CULTIVARS          
   LT WA0016 Morton [W]      
*FIELDS             
   WASP0001 WAPU9810   0.0    0. DR000    0. 100.0 00000 SIL    180. CF_LTAR057-99.00 -99.0
      0.0000000000    0.0000000000     0.000               1.0  100.   1.0   0.0   -99   -99
*INITIAL CONDITIONS 
   WH    2001230     0     0  1.00  1.00 -99.0     0  0.00  0.00  100.   15.
      5. 0.300 0.100  2.60
     15. 0.300 0.100  2.50
     20. 0.300 0.100  2.40
     30. 0.300 0.200  1.30
     39. 0.300 0.200  1.10
     49. 0.300 0.200  1.10
     60. 0.300 0.200  1.10
     72. 0.300 0.200  1.10
     83. 0.300 0.200 0.827
     98. 0.300 0.200 0.100
    114. 0.300 0.200 0.100
    133. 0.300 0.200 0.100
    153. 0.300 0.200 0.100
    155. 0.300 0.200 0.100
*PLANTING DETAILS   
   2001277     -99 100.0 100.0     S     R   18.    0.   2.5  -99.  -99. -99.0 -99.0   0.0
*IRRIGATION         
   1.000    0.    0.    0. GS000 IR001   0.0
*FERTILIZERS        
*RESIDUES           
*CHEMICALS          
*TILLAGE            
*ENVIRONMENT        
*HARVEST            
*SOIL               
 CF_LTAR057  CAL LTAR    SIL    180.   Calculated from CAF plot data                   
 Pullman, WA  USA         46.780  46.779 Palouse etc.                                      
 BK     0.17   6.0  0.50   80.  1.00  1.00 SA001 SA001 SA001 -99  
    5.       0.130 0.330 0.450 1.000 0.680  1.33 2.190  18.3  71.7   0.0 0.160  5.20-99.00-99.00-99.00
   15.       0.130 0.330 0.450 1.000 0.680  1.33 2.085  18.3  71.7   0.0 0.150  5.25-99.00-99.00-99.00
   20.       0.130 0.330 0.450 1.000 0.680  1.33 1.980  18.3  71.7   0.0 0.140  5.30-99.00-99.00-99.00
   30.       0.130 0.330 0.450 1.000 0.680  1.39 0.880  18.3  71.7   0.0 0.080  6.10-99.00-99.00-99.00
   39.       0.130 0.330 0.450 1.000 0.680  1.39 0.500  16.2  73.8   0.0 0.050  6.20-99.00-99.00-99.00
   49.       0.130 0.330 0.450 1.000 0.680  1.39 0.500  16.2  73.8   0.0 0.050  6.20-99.00-99.00-99.00
   60.       0.130 0.330 0.450 0.700 0.680  1.40 0.380  14.1  75.9   0.0 0.040  6.60-99.00-99.00-99.00
   72.       0.130 0.330 0.450 0.700 0.680  1.40 0.380  14.1  75.9   0.0 0.040  6.60-99.00-99.00-99.00
   83.       0.130 0.330 0.450 0.700 0.680  1.40 0.380  14.1  75.9   0.0 0.040  6.60-99.00-99.00-99.00
   98.       0.130 0.340 0.450 0.700 0.680  1.34 0.330  14.1  75.9   0.0 0.040  6.70-99.00-99.00-99.00
  114.       0.130 0.340 0.450 0.700 0.680  1.34 0.330  14.1  75.9   0.0 0.040  6.70-99.00-99.00-99.00
  133.       0.130 0.350 0.450 0.250 0.680  1.31 0.820  14.1  75.9   0.0 0.020  7.50-99.00-99.00-99.00
  153.       0.130 0.350 0.450 0.250 0.680  1.31 0.820  14.1  75.9   0.0 0.020  7.50-99.00-99.00-99.00
  155.       0.130 0.350 0.450 0.000 .0010  1.31 0.820  14.1  75.9   0.0 0.020  7.50-99.00-99.00-99.00
                    
    5.-99.00 -99.0 -99.0 -99.0 -99.0 -99.0 -99.0 -99.0 -99.0 -99.0-99.00 -99.0 -99.0 -99.0 -99.0 -99.0  -99.  -99.
   15.-99.00 -99.0 -99.0 -99.0 -99.0 -99.0 -99.0 -99.0 -99.0 -99.0-99.00 -99.0 -99.0 -99.0 -99.0 -99.0  -99.  -99.
   20.-99.00 -99.0 -99.0 -99.0 -99.0 -99.0 -99.0 -99.0 -99.0 -99.0-99.00 -99.0 -99.0 -99.0 -99.0 -99.0  -99.  -99.
   30.-99.00 -99.0 -99.0 -99.0 -99.0 -99.0 -99.0 -99.0 -99.0 -99.0-99.00 -99.0 -99.0 -99.0 -99.0 -99.0  -99.  -99.
   39.-99.00 -99.0 -99.0 -99.0 -99.0 -99.0 -99.0 -99.0 -99.0 -99.0-99.00 -99.0 -99.0 -99.0 -99.0 -99.0  -99.  -99.
   49.-99.00 -99.0 -99.0 -99.0 -99.0 -99.0 -99.0 -99.0 -99.0 -99.0-99.00 -99.0 -99.0 -99.0 -99.0 -99.0  -99.  -99.
   60.-99.00 -99.0 -99.0 -99.0 -99.0 -99.0 -99.0 -99.0 -99.0 -99.0-99.00 -99.0 -99.0 -99.0 -99.0 -99.0  -99.  -99.
   72.-99.00 -99.0 -99.0 -99.0 -99.0 -99.0 -99.0 -99.0 -99.0 -99.0-99.00 -99.0 -99.0 -99.0 -99.0 -99.0  -99.  -99.
   83.-99.00 -99.0 -99.0 -99.0 -99.0 -99.0 -99.0 -99.0 -99.0 -99.0-99.00 -99.0 -99.0 -99.0 -99.0 -99.0  -99.  -99.
   98.-99.00 -99.0 -99.0 -99.0 -99.0 -99.0 -99.0 -99.0 -99.0 -99.0-99.00 -99.0 -99.0 -99.0 -99.0 -99.0  -99.  -99.
  114.-99.00 -99.0 -99.0 -99.0 -99.0 -99.0 -99.0 -99.0 -99.0 -99.0-99.00 -99.0 -99.0 -99.0 -99.0 -99.0  -99.  -99.
  133.-99.00 -99.0 -99.0 -99.0 -99.0 -99.0 -99.0 -99.0 -99.0 -99.0-99.00 -99.0 -99.0 -99.0 -99.0 -99.0  -99.  -99.
  153.-99.00 -99.0 -99.0 -99.0 -99.0 -99.0 -99.0 -99.0 -99.0 -99.0-99.00 -99.0 -99.0 -99.0 -99.0 -99.0  -99.  -99.
  155.-99.00 -99.0 -99.0 -99.0 -99.0 -99.0 -99.0 -99.0 -99.0 -99.0-99.00 -99.0 -99.0 -99.0 -99.0 -99.0  -99.  -99.
                    
    5.-99.00-99.00-99.00-99.00
   15.-99.00-99.00-99.00-99.00
   20.-99.00-99.00-99.00-99.00
   30.-99.00-99.00-99.00-99.00
   39.-99.00-99.00-99.00-99.00
   49.-99.00-99.00-99.00-99.00
   60.-99.00-99.00-99.00-99.00
   72.-99.00-99.00-99.00-99.00
   83.-99.00-99.00-99.00-99.00
   98.-99.00-99.00-99.00-99.00
  114.-99.00-99.00-99.00-99.00
  133.-99.00-99.00-99.00-99.00
  153.-99.00-99.00-99.00-99.00
  155.-99.00-99.00-99.00-99.00
*CULTIVAR           
WA0016 Morton [W]       WINTER 17.00-0.066 30.10  7.00 10.00 27.70 15.00 1.300 285.0  70.0  1.00 0.040 20.00  2.00 14.00  77.0 0.225 0.020
