*MODEL INPUT FILE            B     1     1     1   999     0
*FILES              
MODEL          TRARO048
FILEX          IBWM9101.TRX                                                                                 
FILEA          IBWM9101.TRA                                                                                 
FILET          IBWM9101.TRT                                                                                 
SPECIES        TRARO048.SPE C:\DSSAT48\GENOTYPE\                                                            
ECOTYPE        TRARO048.ECO C:\DSSAT48\GENOTYPE\                                                            
CULTIVAR       TRARO048.CUL C:\DSSAT48\GENOTYPE\                                                            
PESTS          TRARO048.PST C:\DSSAT48\PEST\                                                                
SOILS          SOIL.SOL     C:\DSSAT48\SOIL\                                                                
WEATHERW       IBWM9101.WTH C:\DSSAT48\Weather\                                                             
OUTPUT         OVERVIEW
*SIMULATION CONTROL 
                   1     1     S 1991098  2150 TARO NITROGEN EXPERIMENT 
                   Y     Y     N     N     N     N     N     N     M
                   M     M     E     R     S     C     R     1     G     R     2     D     0
                   R     A     R     R     M
                   N     Y     Y     1     Y     N     Y     Y     N     N     Y     N     N
!AUTOMATIC MANAGEM  
                   -99     -99   40.  100.   30.   40.   10.
                 30.   80.  100. GS000 IR001  10.0 1.000
                 30.   50.   25. FE001 GS000
                100.     1   20.
                     0     -99  100.    0.
*EXP.DETAILS        
  1IBWM9101 TR TARO NITROGEN EXPERIMENT, WAIMANALO                         
*TREATMENTS         
  1 1 1 0 0 NITROGEN               
*CULTIVARS          
   TR IB0001 LEHUA           
*FIELDS             
   IBWM0001 IBWM9101   0.0    0. DR000    0. 100.0 00000 -99     66. IBAR910034-99.00 -99.0
    -99.0000000000  -99.0000000000   -99.000               1.0  100.   1.0 -99.0 FH101   -99
*INITIAL CONDITIONS 
   TR    1991098   100     0  1.00  1.00 -99.0  1000  0.53  0.00    0.   15.
      5. 0.260  2.00  5.00
     15. 0.260  2.00  3.00
     18. 0.260  2.00  3.00
     28. 0.260  1.50  2.10
     38. 0.260 0.500  1.10
     52. 0.260 0.500  1.10
     66. 0.260 0.500  1.00
*PLANTING DETAILS   
   1991098     -99   4.4   4.4     S     R   76.    0.  20.0  -99.  -99. -99.0 -99.0   0.0
*IRRIGATION         
   1.000    0.    0.    0. GS000 IR001   0.0
*FERTILIZERS        
*RESIDUES           
*CHEMICALS          
*TILLAGE            
*ENVIRONMENT        
*HARVEST            
*SOIL               
 IBAR910034  S70Ha-7-1   -99     66.   IBAR910034                                      
 -99         -99          -0.009  -0.099 VERTIC HAPLUSTOLLS, VERY-FINE, KAOLINITIC, ISOHYPE
 -99    0.13  11.7  0.60   87.  0.80  1.00 SA001 SA001 SA001 -99  
    5.       0.226 0.348 0.396 1.000  -99.  1.18 1.980 -99.0 -99.0 -99.0  -9.0  6.10-99.00 20.00-99.00
   15.       0.226 0.348 0.396 0.800  -99.  1.18 1.980 -99.0 -99.0 -99.0  -9.0  6.10-99.00 20.00-99.00
   18.       0.226 0.348 0.396 0.800  -99.  1.18 1.980 -99.0 -99.0 -99.0  -9.0  6.10-99.00 20.00-99.00
   28.       0.233 0.359 0.403 0.500  -99.  1.22 1.900 -99.0 -99.0 -99.0  -9.0  6.20-99.00 20.00-99.00
   38.       0.233 0.359 0.403 0.050  -99.  1.22 1.900 -99.0 -99.0 -99.0  -9.0  6.20-99.00 20.00-99.00
   52.       0.223 0.347 0.400 0.005  -99.  1.10 0.800 -99.0 -99.0 -99.0  -9.0  6.40-99.00 20.00-99.00
   66.       0.223 0.347 0.400 0.000  -99.  1.10 0.800 -99.0 -99.0 -99.0  -9.0  6.40-99.00 20.00-99.00
                    
    5.-99.00 -99.0 -99.0 -99.0 -99.0 -99.0 -99.0 -99.0 -99.0 -99.0-99.00 -99.0 -99.0 -99.0 -99.0 -99.0  -99.  -99.
   15.-99.00 -99.0 -99.0 -99.0 -99.0 -99.0 -99.0 -99.0 -99.0 -99.0-99.00 -99.0 -99.0 -99.0 -99.0 -99.0  -99.  -99.
   18.-99.00 -99.0 -99.0 -99.0 -99.0 -99.0 -99.0 -99.0 -99.0 -99.0-99.00 -99.0 -99.0 -99.0 -99.0 -99.0  -99.  -99.
   28.-99.00 -99.0 -99.0 -99.0 -99.0 -99.0 -99.0 -99.0 -99.0 -99.0-99.00 -99.0 -99.0 -99.0 -99.0 -99.0  -99.  -99.
   38.-99.00 -99.0 -99.0 -99.0 -99.0 -99.0 -99.0 -99.0 -99.0 -99.0-99.00 -99.0 -99.0 -99.0 -99.0 -99.0  -99.  -99.
   52.-99.00 -99.0 -99.0 -99.0 -99.0 -99.0 -99.0 -99.0 -99.0 -99.0-99.00 -99.0 -99.0 -99.0 -99.0 -99.0  -99.  -99.
   66.-99.00 -99.0 -99.0 -99.0 -99.0 -99.0 -99.0 -99.0 -99.0 -99.0-99.00 -99.0 -99.0 -99.0 -99.0 -99.0  -99.  -99.
                    
    5.-99.00-99.00-99.00-99.00
   15.-99.00-99.00-99.00-99.00
   18.-99.00-99.00-99.00-99.00
   28.-99.00-99.00-99.00-99.00
   38.-99.00-99.00-99.00-99.00
   52.-99.00-99.00-99.00-99.00
   66.-99.00-99.00-99.00-99.00
*CULTIVAR           
IB0001 LEHUA            IB0001  800. 1130.  940.  980.  1.00  1.00   1.0 150.0 120.0
