*MODEL INPUT FILE            B     1     1     1   999     0
*FILES              
MODEL          CRGRO048
FILEX          OHWO9001.SBX                                                                                 
FILEA          OHWO9001.SBA                                                                                 
FILET          OHWO9001.SBT                                                                                 
SPECIES        SBGRO048.SPE C:\DSSAT48\GENOTYPE\                                                            
ECOTYPE        SBGRO048.ECO C:\DSSAT48\GENOTYPE\                                                            
CULTIVAR       SBGRO048.CUL C:\DSSAT48\GENOTYPE\                                                            
PESTS          SBGRO048.PST C:\DSSAT48\PEST\                                                                
SOILS          SOIL.SOL     C:\DSSAT48\SOIL\                                                                
WEATHERW       OHWO9001.WTH C:\DSSAT48\Weather\                                                             
OUTPUT         OVERVIEW
*SIMULATION CONTROL 
                   1     1     S 1990120  2150 ASA 1990 STUDY, WILLIAMS 
                   Y     Y     Y     N     N     N     N     Y     M
                   M     M     E     R     S     L     R     1     G     R     2     D     0
                   R     R     R     R     M
                   N     Y     Y     1     Y     Y     Y     Y     N     N     Y     N     N
!AUTOMATIC MANAGEM  
                   -99     -99   40.  100.   30.   40.   10.
                 30.   50.  100. IB001 IB001  10.0 1.000
                 30.   50.   25. IB001 IB001
                100.     1   20.
                     0     -99  100.    0.
*EXP.DETAILS        
  1OHWO9001 SB ASA 1990 STUDY, WILLIAMS-82, IRRIGATED                      
*TREATMENTS         
  1 1 0 0 90 Williams-82, Irr-Ohio 
*CULTIVARS          
   SB IB0010 WILLIAMS-82 (3) 
*FIELDS             
   OHWO0001 OHWO9001   0.0    0. IB000    0. 100.0 00000 -99    205. IBSB910064-99.00 -99.0
    -99.0000000000  -99.0000000000   -99.000               1.0  100.   1.0 -99.0   -99   -99
*INITIAL CONDITIONS 
   SB    1990120   100     0  1.00  1.00 -99.0     0  0.00  0.00  100.    0.
      5. 0.262 0.900  1.50
     15. 0.262 0.900  1.50
     25. 0.262 0.900  1.50
     40. 0.262 0.900  1.50
     55. 0.262 0.900  1.50
     70. 0.261 0.800  1.00
     85. 0.261 0.800  1.00
    115. 0.260 0.600 0.500
    145. 0.259 0.600 0.500
    175. 0.258 0.600 0.500
    205. 0.258 0.600 0.500
*PLANTING DETAILS   
   1990120     -99  41.2  41.2     S     R   19.    0.   4.0  -99.  -99. -99.0 -99.0 -99.0
*IRRIGATION         
   1.000    0.    0.    0. GS000 IR001   0.0
*FERTILIZERS        
*RESIDUES           
   1990120 IB001  4000  0.53  0.00  0.00  100.   15.   -99
*CHEMICALS          
*TILLAGE            
*ENVIRONMENT        
*HARVEST            
*SOIL               
 IBSB910064              -99    205.   Deep Silt Loam                                  
 -99         -99          -0.009  -0.099 DEEP SILT LOAM                                    
 -99    0.12   6.0  0.40   77.  1.00  1.00 IB001 IB001 IB001 -99  
    5.       0.106 0.262 0.362 1.000  -99.  1.37 1.160 -99.0 -99.0 -99.0  -9.0  6.50-99.00-99.00-99.00
   15.       0.106 0.262 0.362 0.910  -99.  1.37 1.130 -99.0 -99.0 -99.0  -9.0  6.50-99.00-99.00-99.00
   25.       0.106 0.262 0.362 0.819  -99.  1.37 1.100 -99.0 -99.0 -99.0  -9.0  6.50-99.00-99.00-99.00
   40.       0.107 0.262 0.362 0.607  -99.  1.37 0.970 -99.0 -99.0 -99.0  -9.0  6.50-99.00-99.00-99.00
   55.       0.107 0.262 0.362 0.607  -99.  1.37 0.970 -99.0 -99.0 -99.0  -9.0  6.50-99.00-99.00-99.00
   70.       0.108 0.261 0.361 0.368  -99.  1.38 0.720 -99.0 -99.0 -99.0  -9.0  6.50-99.00-99.00-99.00
   85.       0.108 0.261 0.361 0.368  -99.  1.38 0.720 -99.0 -99.0 -99.0  -9.0  6.50-99.00-99.00-99.00
  115.       0.110 0.260 0.360 0.202  -99.  1.38 0.430 -99.0 -99.0 -99.0  -9.0  6.50-99.00-99.00-99.00
  145.       0.111 0.259 0.359 0.111  -99.  1.39 0.200 -99.0 -99.0 -99.0  -9.0  6.50-99.00-99.00-99.00
  175.       0.112 0.258 0.358 0.061  -99.  1.39 0.060 -99.0 -99.0 -99.0  -9.0  6.50-99.00-99.00-99.00
  205.       0.112 0.258 0.358 0.033  -99.  1.39 0.010 -99.0 -99.0 -99.0  -9.0  6.50-99.00-99.00-99.00
                    
    5.-99.00 -99.0 -99.0 -99.0 -99.0 -99.0 -99.0 -99.0 -99.0 -99.0-99.00 -99.0 -99.0 -99.0 -99.0 -99.0  -99.  -99.
   15.-99.00 -99.0 -99.0 -99.0 -99.0 -99.0 -99.0 -99.0 -99.0 -99.0-99.00 -99.0 -99.0 -99.0 -99.0 -99.0  -99.  -99.
   25.-99.00 -99.0 -99.0 -99.0 -99.0 -99.0 -99.0 -99.0 -99.0 -99.0-99.00 -99.0 -99.0 -99.0 -99.0 -99.0  -99.  -99.
   40.-99.00 -99.0 -99.0 -99.0 -99.0 -99.0 -99.0 -99.0 -99.0 -99.0-99.00 -99.0 -99.0 -99.0 -99.0 -99.0  -99.  -99.
   55.-99.00 -99.0 -99.0 -99.0 -99.0 -99.0 -99.0 -99.0 -99.0 -99.0-99.00 -99.0 -99.0 -99.0 -99.0 -99.0  -99.  -99.
   70.-99.00 -99.0 -99.0 -99.0 -99.0 -99.0 -99.0 -99.0 -99.0 -99.0-99.00 -99.0 -99.0 -99.0 -99.0 -99.0  -99.  -99.
   85.-99.00 -99.0 -99.0 -99.0 -99.0 -99.0 -99.0 -99.0 -99.0 -99.0-99.00 -99.0 -99.0 -99.0 -99.0 -99.0  -99.  -99.
  115.-99.00 -99.0 -99.0 -99.0 -99.0 -99.0 -99.0 -99.0 -99.0 -99.0-99.00 -99.0 -99.0 -99.0 -99.0 -99.0  -99.  -99.
  145.-99.00 -99.0 -99.0 -99.0 -99.0 -99.0 -99.0 -99.0 -99.0 -99.0-99.00 -99.0 -99.0 -99.0 -99.0 -99.0  -99.  -99.
  175.-99.00 -99.0 -99.0 -99.0 -99.0 -99.0 -99.0 -99.0 -99.0 -99.0-99.00 -99.0 -99.0 -99.0 -99.0 -99.0  -99.  -99.
  205.-99.00 -99.0 -99.0 -99.0 -99.0 -99.0 -99.0 -99.0 -99.0 -99.0-99.00 -99.0 -99.0 -99.0 -99.0 -99.0  -99.  -99.
                    
    5.-99.00-99.00-99.00-99.00
   15.-99.00-99.00-99.00-99.00
   25.-99.00-99.00-99.00-99.00
   40.-99.00-99.00-99.00-99.00
   55.-99.00-99.00-99.00-99.00
   70.-99.00-99.00-99.00-99.00
   85.-99.00-99.00-99.00-99.00
  115.-99.00-99.00-99.00-99.00
  145.-99.00-99.00-99.00-99.00
  175.-99.00-99.00-99.00-99.00
  205.-99.00-99.00-99.00-99.00
*CULTIVAR           
IB0010 WILLIAMS-82 (3)  SB0301 13.40 0.285 19.00  8.30 14.20 32.20 28.00 0.970 385.0 180.0  1.00 0.180 26.00  2.40 12.00  77.0 0.405 0.205
