*MODEL INPUT FILE            B     1     1     1   999     0
*FILES              
MODEL          CRGRO048
FILEX          UFGR8901.PNX                                                                                 
FILEA          UFGR8901.PNA                                                                                 
FILET          UFGR8901.PNT                                                                                 
SPECIES        PNGRO048.SPE C:\DSSAT48\GENOTYPE\                                                            
ECOTYPE        PNGRO048.ECO C:\DSSAT48\GENOTYPE\                                                            
CULTIVAR       PNGRO048.CUL C:\DSSAT48\GENOTYPE\                                                            
PESTS          PNGRO048.PST C:\DSSAT48\PEST\                                                                
SOILS          SOIL.SOL     C:\DSSAT48\SOIL\                                                                
WEATHERW       UFGR8901.WTH C:\DSSAT48\Weather\                                                             
OUTPUT         OVERVIEW
*SIMULATION CONTROL 
                   1     1     S 1989125  2150 GREEN ACRES, NE, FL, EIG 
                   Y     Y     Y     N     N     N     N     N     M
                   M     M     E     R     S     L     R     1     G     R     2     D     0
                   R     R     R     R     R
                   N     Y     Y     1     Y     Y     Y     Y     N     N     Y     N     N
!AUTOMATIC MANAGEM  
                   -99     -99   40.  100.   30.   40.   10.
                 30.   70.  100. IB001 IB001  10.0 0.750
                 30.   50.   25. IB001 IB001
                100.     1   20.
                     0     -99  100.    0.
*EXP.DETAILS        
  1UFGR8901 PN GREEN ACRES, NEWBERRY, FL, EIGHT CVS                        
*TREATMENTS         
  1 1 1 0 CHICO                    
*CULTIVARS          
   PN IB0008 CHICO           
*FIELDS             
   UFGR0001 UFGR8901   0.0    0. DR000    0. 100.0 00000 -99    180. IBPN910040-99.00 -99.0
    -99.0000000000  -99.0000000000   -99.000               1.0  100.   1.0 -99.0   -99   -99
*INITIAL CONDITIONS 
   PN    1989125   100     0  1.00  1.00 -99.0     0  0.00  0.00  100.    0.
      5. 0.086 0.600  1.50
     15. 0.086 0.600  1.50
     30. 0.086 0.600  1.50
     45. 0.086 0.600  1.50
     60. 0.086 0.600  1.50
     90. 0.076 0.600 0.600
    120. 0.076 0.600 0.500
    150. 0.130 0.600 0.500
    180. 0.258 0.600 0.500
*PLANTING DETAILS   
   1989125     -99  13.5  13.5     S     R   91.    0.   4.0  -99.  -99. -99.0 -99.0 -99.0
*IRRIGATION         
   0.750   30.   75.  -99. GS000 IR001   0.0
   1989155 IR001  38.0
   1989192 IR001  40.0
   1989213 IR001  25.0
*FERTILIZERS        
*RESIDUES           
   1989125 RE001  1000  0.80  0.00  0.00  100.   15.   -99
*CHEMICALS          
*TILLAGE            
*ENVIRONMENT        
*HARVEST            
   1989235 GS000   -99   -99  100.    0.
*SOIL               
 IBPN910040  GreenAcres, -99    180.   Millhopper Fine Sand                            
 -99         -99          -0.009  -0.099 Loamy,silic,hyperth Gross. Paleudults             
 -99    0.18   5.0  0.50   66.  1.00  0.90 IB001 IB001 IB001 -99  
    5.       0.023 0.086 0.230 1.000  7.40  1.36 0.900 -99.0 -99.0 -99.0  -9.0  7.00-99.00-99.00-99.00
   15.       0.023 0.086 0.230 1.000  7.40  1.40 0.690 -99.0 -99.0 -99.0  -9.0  7.00-99.00-99.00-99.00
   30.       0.023 0.086 0.230 0.550  15.8  1.46 0.280 -99.0 -99.0 -99.0  -9.0  7.00-99.00-99.00-99.00
   45.       0.023 0.086 0.230 0.320  28.0  1.46 0.280 -99.0 -99.0 -99.0  -9.0  7.00-99.00-99.00-99.00
   60.       0.023 0.086 0.230 0.320  28.0  1.47 0.200 -99.0 -99.0 -99.0  -9.0  7.00-99.00-99.00-99.00
   90.       0.021 0.076 0.230 0.380  27.6  1.43 0.090 -99.0 -99.0 -99.0  -9.0  7.00-99.00-99.00-99.00
  120.       0.020 0.076 0.230 0.400  17.5  1.48 0.030 -99.0 -99.0 -99.0  -9.0  7.00-99.00-99.00-99.00
  150.       0.027 0.130 0.230 0.300 0.300  1.57 0.030 -99.0 -99.0 -99.0  -9.0  7.00-99.00-99.00-99.00
  180.       0.070 0.258 0.360 0.200 0.100  1.79 0.030 -99.0 -99.0 -99.0  -9.0  7.00-99.00-99.00-99.00
                    
    5.-99.00 -99.0 -99.0 -99.0 -99.0 -99.0 -99.0 -99.0 -99.0 -99.0-99.00 -99.0 -99.0 -99.0 -99.0 -99.0  -99.  -99.
   15.-99.00 -99.0 -99.0 -99.0 -99.0 -99.0 -99.0 -99.0 -99.0 -99.0-99.00 -99.0 -99.0 -99.0 -99.0 -99.0  -99.  -99.
   30.-99.00 -99.0 -99.0 -99.0 -99.0 -99.0 -99.0 -99.0 -99.0 -99.0-99.00 -99.0 -99.0 -99.0 -99.0 -99.0  -99.  -99.
   45.-99.00 -99.0 -99.0 -99.0 -99.0 -99.0 -99.0 -99.0 -99.0 -99.0-99.00 -99.0 -99.0 -99.0 -99.0 -99.0  -99.  -99.
   60.-99.00 -99.0 -99.0 -99.0 -99.0 -99.0 -99.0 -99.0 -99.0 -99.0-99.00 -99.0 -99.0 -99.0 -99.0 -99.0  -99.  -99.
   90.-99.00 -99.0 -99.0 -99.0 -99.0 -99.0 -99.0 -99.0 -99.0 -99.0-99.00 -99.0 -99.0 -99.0 -99.0 -99.0  -99.  -99.
  120.-99.00 -99.0 -99.0 -99.0 -99.0 -99.0 -99.0 -99.0 -99.0 -99.0-99.00 -99.0 -99.0 -99.0 -99.0 -99.0  -99.  -99.
  150.-99.00 -99.0 -99.0 -99.0 -99.0 -99.0 -99.0 -99.0 -99.0 -99.0-99.00 -99.0 -99.0 -99.0 -99.0 -99.0  -99.  -99.
  180.-99.00 -99.0 -99.0 -99.0 -99.0 -99.0 -99.0 -99.0 -99.0 -99.0-99.00 -99.0 -99.0 -99.0 -99.0 -99.0  -99.  -99.
                    
    5.-99.00-99.00-99.00-99.00
   15.-99.00-99.00-99.00-99.00
   30.-99.00-99.00-99.00-99.00
   45.-99.00-99.00-99.00-99.00
   60.-99.00-99.00-99.00-99.00
   90.-99.00-99.00-99.00-99.00
  120.-99.00-99.00-99.00-99.00
  150.-99.00-99.00-99.00-99.00
  180.-99.00-99.00-99.00-99.00
*CULTIVAR           
IB0008 CHICO            PN0006 11.84 0.000 16.40  7.00 15.00 58.00 66.00 1.040 285.0  16.0  0.90 0.310 22.00  1.75 13.00  77.0 0.270 0.510
