*MODEL INPUT FILE            B     1     1     1   999     0
*FILES              
MODEL          CRGRO048
FILEX          IUCA7901.SBX                                                                                 
FILEA          IUCA7901.SBA                                                                                 
FILET          IUCA7901.SBT                                                                                 
SPECIES        SBGRO048.SPE C:\DSSAT48\GENOTYPE\                                                            
ECOTYPE        SBGRO048.ECO C:\DSSAT48\GENOTYPE\                                                            
CULTIVAR       SBGRO048.CUL C:\DSSAT48\GENOTYPE\                                                            
PESTS          SBGRO048.PST C:\DSSAT48\PEST\                                                                
SOILS          SOIL.SOL     C:\DSSAT48\SOIL\                                                                
WEATHERW       IUCA7901.WTH C:\DSSAT48\Weather\                                                             
OUTPUT         OVERVIEW
*SIMULATION CONTROL 
                   1     1     S 1979135  2150 WAYNE, IRRIGATED & NON-I 
                   Y     Y     Y     N     N     N     N     Y     M
                   M     M     E     R     S     L     R     1     G     R     2     D     0
                   R     A     R     R     M
                   N     Y     Y     1     Y     Y     Y     Y     N     N     Y     N     N
!AUTOMATIC MANAGEM  
                   -99     -99   40.  100.   30.   40.   10.
                 30.   50.  100. IB001 IB001  10.0 0.750
                 30.   50.   25. IB001 IB001
                100.     1   20.
                     0     -99  100.    0.
*EXP.DETAILS        
  1IUCA7901 SB WAYNE, IRRIGATED & NON-IRRIGATED                            
*TREATMENTS         
  1 1 1 0 0.25m ROW, NO WATER STRES
*CULTIVARS          
   SB IB0003 WAYNE (3)       
*FIELDS             
   IUCA0001 IUCA7901   0.0    0. IB000    0. 100.0 00000 -99    180. IBSB910026-99.00 -99.0
     42.2000007629  -82.3700027466     0.000               1.0  100.   1.0   0.0   -99   -99
*INITIAL CONDITIONS 
   SB    1979135   100     0  1.00  1.00 -99.0     0  0.00  0.00  100.    0.
      5. 0.290 0.900  1.50
     15. 0.290 0.900  1.50
     30. 0.290 0.900  1.50
     45. 0.228 0.900  1.50
     60. 0.228 0.900  1.50
     90. 0.254 0.600 0.500
    120. 0.290 0.600 0.500
    150. 0.283 0.600 0.500
    180. 0.291 0.600 0.500
*PLANTING DETAILS   
   1979135     -99  16.0  16.0     S     R   25.    0.   5.0  -99.  -99. -99.0 -99.0 -99.0
*IRRIGATION         
   1.000    0.    0.    0. GS000 IR001   0.0
*FERTILIZERS        
*RESIDUES           
   1979135 IB001  4000  0.53  0.00  0.00  100.   25.   -99
*CHEMICALS          
*TILLAGE            
*ENVIRONMENT        
*HARVEST            
*SOIL               
 IBSB910026  SCS         -99    180.   Ida Silt Loam                                   
 Castana     USA          42.000 -93.700 Ida Silt Loam                                     
 -99    0.12   6.0  0.30   60.  1.00  1.00 IB001 IB001 IB001 -99  
    5.       0.135 0.290 0.485 1.000  -99.  1.20 -99.0 -99.0 -99.0 -99.0  -9.0  7.00-99.00-99.00-99.00
   15.       0.135 0.290 0.485 1.000  -99.  1.20 -99.0 -99.0 -99.0 -99.0  -9.0  7.00-99.00-99.00-99.00
   30.       0.135 0.290 0.485 0.175  -99.  1.20 -99.0 -99.0 -99.0 -99.0  -9.0  7.00-99.00-99.00-99.00
   45.       0.106 0.228 0.514 0.138  -99.  1.20 -99.0 -99.0 -99.0 -99.0  -9.0  7.00-99.00-99.00-99.00
   60.       0.106 0.228 0.514 0.138  -99.  1.20 -99.0 -99.0 -99.0 -99.0  -9.0  7.00-99.00-99.00-99.00
   90.       0.105 0.254 0.517 0.188  -99.  1.20 -99.0 -99.0 -99.0 -99.0  -9.0  7.00-99.00-99.00-99.00
  120.       0.133 0.290 0.507 0.250  -99.  1.20 -99.0 -99.0 -99.0 -99.0  -9.0  7.00-99.00-99.00-99.00
  150.       0.108 0.283 0.505 0.213  -99.  1.20 -99.0 -99.0 -99.0 -99.0  -9.0  7.00-99.00-99.00-99.00
  180.       0.108 0.291 0.542 0.100  -99.  1.20 -99.0 -99.0 -99.0 -99.0  -9.0  7.00-99.00-99.00-99.00
                    
    5.-99.00 -99.0 -99.0 -99.0 -99.0 -99.0 -99.0 -99.0 -99.0 -99.0-99.00 -99.0 -99.0 -99.0 -99.0 -99.0  -99.  -99.
   15.-99.00 -99.0 -99.0 -99.0 -99.0 -99.0 -99.0 -99.0 -99.0 -99.0-99.00 -99.0 -99.0 -99.0 -99.0 -99.0  -99.  -99.
   30.-99.00 -99.0 -99.0 -99.0 -99.0 -99.0 -99.0 -99.0 -99.0 -99.0-99.00 -99.0 -99.0 -99.0 -99.0 -99.0  -99.  -99.
   45.-99.00 -99.0 -99.0 -99.0 -99.0 -99.0 -99.0 -99.0 -99.0 -99.0-99.00 -99.0 -99.0 -99.0 -99.0 -99.0  -99.  -99.
   60.-99.00 -99.0 -99.0 -99.0 -99.0 -99.0 -99.0 -99.0 -99.0 -99.0-99.00 -99.0 -99.0 -99.0 -99.0 -99.0  -99.  -99.
   90.-99.00 -99.0 -99.0 -99.0 -99.0 -99.0 -99.0 -99.0 -99.0 -99.0-99.00 -99.0 -99.0 -99.0 -99.0 -99.0  -99.  -99.
  120.-99.00 -99.0 -99.0 -99.0 -99.0 -99.0 -99.0 -99.0 -99.0 -99.0-99.00 -99.0 -99.0 -99.0 -99.0 -99.0  -99.  -99.
  150.-99.00 -99.0 -99.0 -99.0 -99.0 -99.0 -99.0 -99.0 -99.0 -99.0-99.00 -99.0 -99.0 -99.0 -99.0 -99.0  -99.  -99.
  180.-99.00 -99.0 -99.0 -99.0 -99.0 -99.0 -99.0 -99.0 -99.0 -99.0-99.00 -99.0 -99.0 -99.0 -99.0 -99.0  -99.  -99.
                    
    5.-99.00-99.00-99.00-99.00
   15.-99.00-99.00-99.00-99.00
   30.-99.00-99.00-99.00-99.00
   45.-99.00-99.00-99.00-99.00
   60.-99.00-99.00-99.00-99.00
   90.-99.00-99.00-99.00-99.00
  120.-99.00-99.00-99.00-99.00
  150.-99.00-99.00-99.00-99.00
  180.-99.00-99.00-99.00-99.00
*CULTIVAR           
IB0003 WAYNE (3)        SB0301 13.45 0.255 19.50  8.00 14.70 26.70 28.00 1.000 375.0 180.0  1.00 0.180 23.00  2.20 12.00  77.0 0.405 0.205
