*MODEL INPUT FILE            B     1     1     1   999     0
*FILES              
MODEL          RICER048
FILEX          IRMZ8601.RIX                                                                                 
FILEA          IRMZ8601.RIA                                                                                 
FILET          IRMZ8601.RIT                                                                                 
SPECIES        RICER048.SPE C:\DSSAT48\GENOTYPE\                                                            
ECOTYPE        RICER048.ECO C:\DSSAT48\GENOTYPE\                                                            
CULTIVAR       RICER048.CUL C:\DSSAT48\GENOTYPE\                                                            
PESTS          RICER048.PST C:\DSSAT48\PEST\                                                                
SOILS          SOIL.SOL     C:\DSSAT48\SOIL\                                                                
WEATHERW       IRMZ8601.WTH C:\DSSAT48\Weather\                                                             
OUTPUT         OVERVIEW
*SIMULATION CONTROL 
                   1     1     S 1986033  2150 IRRI,MUNOZ JAN 86 UREASE 
                   Y     Y     N     N     N     N     N     N     M
                   M     M     E     R     S     C     R     1     G     R     2     D     0
                   R     R     R     R     M
                   N     Y     Y     1     Y     N     Y     Y     N     N     Y     N     N
!AUTOMATIC MANAGEM  
                   -99     -99   40.  100.   30.   40.   10.
                 30.   50.  100. IB001 IB001  10.0 1.000
                 30.   50.   25. IB001 IB001
                100.     1   20.
                     0     -99  100.    0.
*EXP.DETAILS        
  1IRMZ8601 RI IRRI,MUNOZ JAN 86 UREASE INHIBITORS                         
*TREATMENTS         
  1 1 0 0 Control 0 N              
*CULTIVARS          
   RI IB0012 IR 58           
*FIELDS             
   IRMZ0001 IRMZ8601   0.0    0. IB000    0. 100.0 00000 -99     50. IBRI910002-99.00 -99.0
      0.0000000000    0.0000000000     0.000               1.0  100.   1.0   0.0   -99   -99
*INITIAL CONDITIONS 
   RI    1986033   600     0  1.00  1.00 -99.0     0  0.00  0.00  100.   15.
      5. 0.650  10.1 0.100
     15. 0.600  10.1 0.100
     20. 0.600  10.1 0.100
     35. 0.550 0.700 0.100
     50. 0.550 0.700 0.100
*PLANTING DETAILS   
   1986036     -99  75.0  25.0     T     H   20.    0.   2.0    0.   23.  26.0   3.0   0.0
*IRRIGATION         
   1.000   30.   75.  -99. GS000 IR001   1.0
   1986033 IR010   0.0
   1986033 IR008   2.0
   1986033 IR009  20.0
   1986033 IR011   5.0
   1986039 IR009 100.0
   1986039 IR011  30.0
   1986043 IR009 150.0
   1986043 IR011  50.0
*FERTILIZERS        
*RESIDUES           
   1986033 RE001   800  1.10  0.00  0.00  100.   15.   -99
*CHEMICALS          
*TILLAGE            
*ENVIRONMENT        
*HARVEST            
*SOIL               
 IBRI910002  IBSNAT      -99     50.   Vertic Tropaquept                               
 -99         -99          -0.009  -0.099 UNKNOWN                                           
 -99    0.13   7.5  0.00   87.  1.00  1.00 IB001 IB001 IB001 -99  
    5.       0.258 0.389 0.650 1.000  -99.  0.85 1.300 -99.0 -99.0 -99.0  -9.0  7.00-99.00 40.00-99.00
   15.       0.258 0.389 0.600 0.850  -99.  0.90 1.200 -99.0 -99.0 -99.0  -9.0  7.00-99.00-99.00-99.00
   20.       0.258 0.389 0.600 0.850  -99.  0.90 1.200 -99.0 -99.0 -99.0  -9.0  7.00-99.00-99.00-99.00
   35.       0.267 0.396 0.550 0.200  -99.  0.90 0.650 -99.0 -99.0 -99.0  -9.0  7.00-99.00-99.00-99.00
   50.       0.267 0.396 0.550 0.050  -99.  0.90 0.500 -99.0 -99.0 -99.0  -9.0  7.00-99.00-99.00-99.00
                    
    5.-99.00 -99.0 -99.0 -99.0 -99.0 -99.0 -99.0 -99.0 -99.0 -99.0-99.00 -99.0 -99.0 -99.0 -99.0 -99.0  -99.  -99.
   15.-99.00 -99.0 -99.0 -99.0 -99.0 -99.0 -99.0 -99.0 -99.0 -99.0-99.00 -99.0 -99.0 -99.0 -99.0 -99.0  -99.  -99.
   20.-99.00 -99.0 -99.0 -99.0 -99.0 -99.0 -99.0 -99.0 -99.0 -99.0-99.00 -99.0 -99.0 -99.0 -99.0 -99.0  -99.  -99.
   35.-99.00 -99.0 -99.0 -99.0 -99.0 -99.0 -99.0 -99.0 -99.0 -99.0-99.00 -99.0 -99.0 -99.0 -99.0 -99.0  -99.  -99.
   50.-99.00 -99.0 -99.0 -99.0 -99.0 -99.0 -99.0 -99.0 -99.0 -99.0-99.00 -99.0 -99.0 -99.0 -99.0 -99.0  -99.  -99.
                    
    5.-99.00-99.00-99.00-99.00
   15.-99.00-99.00-99.00-99.00
   20.-99.00-99.00-99.00-99.00
   35.-99.00-99.00-99.00-99.00
   50.-99.00-99.00-99.00-99.00
*CULTIVAR           
IB0012 IR 58            IB0001 254.8  96.4 378.4  10.6  77.0 0.020  1.00 83.00  33.9  15.0  15.0
