*MODEL INPUT FILE            B     1     1     1   999     0
*FILES              
MODEL          TRARO048
FILEX          IBKA9702.TRX                                                                                 
FILEA          IBKA9702.TRA                                                                                 
FILET          IBKA9702.TRT                                                                                 
SPECIES        TRARO048.SPE C:\DSSAT48\GENOTYPE\                                                            
ECOTYPE        TRARO048.ECO C:\DSSAT48\GENOTYPE\                                                            
CULTIVAR       TRARO048.CUL C:\DSSAT48\GENOTYPE\                                                            
PESTS          TRARO048.PST C:\DSSAT48\PEST\                                                                
SOILS          SOIL.SOL     C:\DSSAT48\SOIL\                                                                
WEATHERW       IBKA9701.WTH C:\DSSAT48\Weather\                                                             
OUTPUT         OVERVIEW
*SIMULATION CONTROL 
                   1     1     S 1997156  2150 KULA AG PARK, IRRIGATION 
                   Y     Y     N     N     N     N     N     N     M
                   M     M     E     R     S     C     R     1     G     R     2     D     0
                   R     R     R     R     M
                   N     Y     Y     1     Y     N     Y     Y     N     N     Y     N     N
!AUTOMATIC MANAGEM  
                   -99     -99   40.  100.   30.   40.   10.
                 30.   50.  100. GS000 IR001  10.0 1.000
                 30.   50.   25. FE001 GS000
                100.     1   20.
                     0     -99  100.    0.
*EXP.DETAILS        
  1IBKA9702 TR KULA AG PARK, IRRIGATION EXPERIMENT                         
*TREATMENTS         
  1 1 1 0 0.1 of 0.5 pe            
*CULTIVARS          
   TR IB0010 LEHUA-MAUI      
*FIELDS             
   IBKA0001 IBKA9701   0.0    0. DR000    0. 100.0 00000 SIL    -99. IB00830002-99.00 -99.0
    -99.0000000000  -99.0000000000   -99.000               1.0  100.   1.0 -99.0   -99   -99
*INITIAL CONDITIONS 
   TR    1997156   100     0  1.00  1.00 -99.0  1000  0.53  0.00    0.   20.
      5. 0.206  15.6  44.4
     15. 0.206  15.6  44.4
     29. 0.216  8.10  32.3
     38. 0.216  5.26  29.3
     48. 0.227  4.21  27.5
     59. 0.253  2.60  24.4
     71. 0.270  1.23  25.9
     82. 0.281  1.10  16.6
    102. 0.286  1.10  11.3
    122. 0.286  1.10  11.3
    150. 0.286  1.10  11.3
*PLANTING DETAILS   
   1997186     -99   2.7   2.7     S     R  122.    0.  15.0  -99.  -99. -99.0   1.0   0.0
*IRRIGATION         
   1.000   30.   75.  -99. GS000 IR001  10.0
   1997156 IR001   1.8
   1997163 IR001   1.8
   1997170 IR001   1.8
   1997177 IR001   1.8
   1997184 IR001   1.8
   1997191 IR001   1.8
   1997198 IR001   1.8
   1997205 IR001   1.8
   1997212 IR001   1.8
   1997219 IR001   1.8
   1997226 IR001   1.8
   1997233 IR001   1.8
   1997240 IR001   1.8
   1997247 IR001   1.8
   1997254 IR001   1.8
   1997261 IR001   1.8
   1997268 IR001   1.8
   1997275 IR001   1.8
   1997282 IR001   1.8
   1997289 IR001   1.8
   1997296 IR001   1.8
   1997303 IR001   1.8
   1997310 IR001   1.8
   1997317 IR001   1.8
   1997324 IR001   1.8
   1997331 IR001   1.8
   1997338 IR001   1.8
   1997345 IR001   1.8
   1997352 IR001   1.8
   1997359 IR001   1.8
   1998001 IR001   1.8
   1998008 IR001   1.8
   1998015 IR001   1.8
   1998022 IR001   1.8
   1998029 IR001   1.8
   1998036 IR001   1.8
   1998043 IR001   1.8
   1998050 IR001   1.8
   1998057 IR001   1.8
   1998064 IR001   1.8
   1998071 IR001   1.8
   1998078 IR001   1.8
   1998085 IR001   1.8
   1998092 IR001   1.8
   1998099 IR001   1.8
   1998106 IR001   1.8
   1998113 IR001   1.8
   1998120 IR001   1.8
   1998127 IR001   1.8
   1998134 IR001   1.8
   1998141 IR001   1.8
   1998148 IR001   1.8
   1998155 IR001   1.8
   1998162 IR001   1.8
   1998169 IR001   1.8
   1998176 IR001   1.8
   1998183 IR001   1.8
*FERTILIZERS        
   1997156 FE005   001    0.  118.  -99.  -99.  -99.  -99.   -99
   1997186 FE005   001    0.  168.  -99.  -99.  -99.  -99.   -99
   1997217 FE005   001    0.  168.  -99.  -99.  -99.  -99.   -99
   1997248 FE005   001    0.  168.  -99.  -99.  -99.  -99.   -99
   1997278 FE005   001    0.  168.  -99.  -99.  -99.  -99.   -99
*RESIDUES           
*CHEMICALS          
*TILLAGE            
*ENVIRONMENT        
*HARVEST            
*SOIL               
 IB00830002  SCS         SIL    -99.   Unknown (Kula Ag Park)                          
 KULA AGPARK US           20.700 156.376 TORROXIC HAPLUSTOLL, FINE, KAOLINITIC, ISOHYPERTHE
 BN     0.13  10.0  0.60   91.  1.00  1.00 IB001 IB001 IB001 -99  
    5.       0.150 0.283 0.400 0.750  -99.  1.29 1.960  25.6  50.8   0.0  -9.0  7.00  6.30 26.40-99.00
   15.       0.141 0.275 0.400 0.875  -99.  1.19 1.625  23.6  51.6   0.0  -9.0  7.05  6.35 25.45-99.00
   29.       0.132 0.267 0.400 1.000  -99.  1.08 1.290  21.7  52.4   0.0  -9.0  7.10  6.40 24.50-99.00
   38.       0.137 0.263 0.393 0.750  -99.  1.12 0.950  24.2  48.0   8.0  -9.0  7.20  6.40 20.00-99.00
   48.       0.137 0.263 0.393 0.750  -99.  1.12 0.950  24.2  48.0   8.0  -9.0  7.20  6.40 20.00-99.00
   59.       0.146 0.277 0.392 1.000  -99.  1.17 0.780  24.7  47.3   0.0  -9.0  7.30  6.70 16.90-99.00
   71.       0.146 0.277 0.392 1.000  -99.  1.17 0.780  24.7  47.3   0.0  -9.0  7.30  6.70 16.90-99.00
   82.       0.146 0.277 0.392 1.000  -99.  1.17 0.780  24.7  47.3   0.0  -9.0  7.30  6.70 16.90-99.00
  102.       0.144 0.286 0.395 0.500  -99.  1.14 0.530  24.3  67.7   0.0  -9.0  7.30  6.70 15.70-99.00
  122.       0.144 0.286 0.395 0.500  -99.  1.14 0.530  24.3  67.7   0.0  -9.0  7.30  6.70 15.70-99.00
  150.       0.184 0.321 0.398 0.200  -99.  1.30 0.420  33.4  56.6   0.0  -9.0  7.40  6.60 13.40-99.00
                    
    5.-99.00 -99.0 -99.0 -99.0 -99.0 -99.0 -99.0 -99.0 -99.0 -99.0-99.00 -99.0 -99.0 -99.0 -99.0 -99.0  -99.  -99.
   15.-99.00 -99.0 -99.0 -99.0 -99.0 -99.0 -99.0 -99.0 -99.0 -99.0-99.00 -99.0 -99.0 -99.0 -99.0 -99.0  -99.  -99.
   29.-99.00 -99.0 -99.0 -99.0 -99.0 -99.0 -99.0 -99.0 -99.0 -99.0-99.00 -99.0 -99.0 -99.0 -99.0 -99.0  -99.  -99.
   38.-99.00 -99.0 -99.0 -99.0 -99.0 -99.0 -99.0 -99.0 -99.0 -99.0-99.00 -99.0 -99.0 -99.0 -99.0 -99.0  -99.  -99.
   48.-99.00 -99.0 -99.0 -99.0 -99.0 -99.0 -99.0 -99.0 -99.0 -99.0-99.00 -99.0 -99.0 -99.0 -99.0 -99.0  -99.  -99.
   59.-99.00 -99.0 -99.0 -99.0 -99.0 -99.0 -99.0 -99.0 -99.0 -99.0-99.00 -99.0 -99.0 -99.0 -99.0 -99.0  -99.  -99.
   71.-99.00 -99.0 -99.0 -99.0 -99.0 -99.0 -99.0 -99.0 -99.0 -99.0-99.00 -99.0 -99.0 -99.0 -99.0 -99.0  -99.  -99.
   82.-99.00 -99.0 -99.0 -99.0 -99.0 -99.0 -99.0 -99.0 -99.0 -99.0-99.00 -99.0 -99.0 -99.0 -99.0 -99.0  -99.  -99.
  102.-99.00 -99.0 -99.0 -99.0 -99.0 -99.0 -99.0 -99.0 -99.0 -99.0-99.00 -99.0 -99.0 -99.0 -99.0 -99.0  -99.  -99.
  122.-99.00 -99.0 -99.0 -99.0 -99.0 -99.0 -99.0 -99.0 -99.0 -99.0-99.00 -99.0 -99.0 -99.0 -99.0 -99.0  -99.  -99.
  150.-99.00 -99.0 -99.0 -99.0 -99.0 -99.0 -99.0 -99.0 -99.0 -99.0-99.00 -99.0 -99.0 -99.0 -99.0 -99.0  -99.  -99.
                    
    5.-99.00-99.00-99.00-99.00
   15.-99.00-99.00-99.00-99.00
   29.-99.00-99.00-99.00-99.00
   38.-99.00-99.00-99.00-99.00
   48.-99.00-99.00-99.00-99.00
   59.-99.00-99.00-99.00-99.00
   71.-99.00-99.00-99.00-99.00
   82.-99.00-99.00-99.00-99.00
  102.-99.00-99.00-99.00-99.00
  122.-99.00-99.00-99.00-99.00
  150.-99.00-99.00-99.00-99.00
*CULTIVAR           
IB0010 LEHUA-MAUI       IB0001 1150. 1200. 1050.  900.  2.50  0.65   1.1 150.0 120.0
