*MODEL INPUT FILE            B     1     1     1   999     0
*FILES              
MODEL          CRGRO048
FILEX          CIEB9801.VBX                                                                                 
FILEA          CIEB9801.VBA                                                                                 
FILET          CIEB9801.VBT                                                                                 
SPECIES        VBGRO048.SPE C:\DSSAT48\GENOTYPE\                                                            
ECOTYPE        VBGRO048.ECO C:\DSSAT48\GENOTYPE\                                                            
CULTIVAR       VBGRO048.CUL C:\DSSAT48\GENOTYPE\                                                            
PESTS          VBGRO048.PST C:\DSSAT48\PEST\                                                                
SOILS          SOIL.SOL     C:\DSSAT48\SOIL\                                                                
WEATHERW       CIEB9803.WTH C:\DSSAT48\Weather\                                                             
OUTPUT         OVERVIEW
*SIMULATION CONTROL 
                   1     1     S 1998160  2150 Batan                    
                   Y     Y     Y     N     N     N     N     N     M
                   M     M     E     R     S     L     R     1     G     R     2     D     0
                   R     N     N     N     R
                   N     Y     Y     1     Y     N     Y     Y     N     Y     Y     N     N
!AUTOMATIC MANAGEM  
                   -99     -99   40.  100.   30.   40.   10.
                 30.   50.  100. GS000 IR001  10.0 1.000
                 30.   50.   25. FE001 GS000
                100.     1   20.
                     0     -99  100.    0.
*EXP.DETAILS        
  1CIEB9801 VB 1998 CIMMYT ES EL BATAN                                     
*TREATMENTS         
  1 0 0 0 El Batan black; June 12  
*CULTIVARS          
   VB CI0004 Veracruz Black  
*FIELDS             
   BATANF9  CIEB9803   0.0    0. DR000    0. 100.0 00000 CSI    -99. CI00960001-99.00 -99.0
    -98.5000000000   19.3099994659  2200.000           10000.0  100.   1.5   0.0   -99   -99
*INITIAL CONDITIONS 
               0     0     0  1.00  1.00 -99.0     0  0.00  0.00  100.    0.
      5. 0.290   0.0   0.0
     15. 0.290   0.0   0.0
     30. 0.318   0.0   0.0
     45. 0.296   0.0   0.0
     60. 0.274   0.0   0.0
     75. 0.186   0.0   0.0
     90. 0.154   0.0   0.0
    120. 0.125   0.0   0.0
    150. 0.125   0.0   0.0
*PLANTING DETAILS   
   1998163 1998173   2.5   2.5     S     R   80.    0.   5.0  -99.  -99. -99.0   1.0   0.0
*IRRIGATION         
   1.000    0.    0.    0. GS000 IR001   0.0
*FERTILIZERS        
*RESIDUES           
*CHEMICALS          
*TILLAGE            
*ENVIRONMENT        
*HARVEST            
   1998365 GS000   -99   -99  100.    0.
*SOIL               
 CI00960001  SCS         CSI    -99.   El Batan                                        
 EL BATANG9  Mexico       19.300 -98.500 El Batan                                          
 BN     0.13  10.5  0.40   76.  1.00  1.00 IB001 IB001 IB001 -99  
    5.       0.171 0.290 0.359 0.750  1.50  1.50 0.800  31.0  26.0   3.0 0.120  6.20-99.00 14.00-99.00
   15.       0.171 0.290 0.359 0.750  1.50  1.50 0.800  31.0  26.0   3.0 0.120  6.20-99.00 14.00-99.00
   30.       0.201 0.318 0.358 0.500 0.700  1.50 0.700  38.0  22.0   3.0 0.070  6.30-99.00 15.50-99.00
   45.       0.178 0.296 0.359 0.350  1.30  1.60 0.900  33.0  25.0   4.0 0.100  6.30-99.00 15.00-99.00
   60.       0.164 0.274 0.341 0.350  1.00  1.60 0.300  30.0  10.0   5.0  -9.0  6.00-99.00-99.00-99.00
   75.       0.058 0.186 0.325 0.350  -99.  1.60 0.200  15.0   9.0   6.0  -9.0  6.00-99.00-99.00-99.00
   90.       0.048 0.154 0.338 0.200  -99.  1.70 0.200  10.0   8.0   7.0  -9.0  6.00-99.00-99.00-99.00
  120.       0.039 0.125 0.327 0.150  -99.  1.70 0.150   7.0   6.0  10.0  -9.0  6.00-99.00-99.00-99.00
  150.       0.039 0.125 0.327 0.150  -99.  1.70 0.150   7.0   6.0  10.0  -9.0  6.00-99.00-99.00-99.00
                    
    5.-99.00 -99.0 -99.0 -99.0 -99.0 -99.0 -99.0 -99.0 -99.0 -99.0-99.00 -99.0 -99.0 -99.0 -99.0 -99.0  -99.  -99.
   15.-99.00 -99.0 -99.0 -99.0 -99.0 -99.0 -99.0 -99.0 -99.0 -99.0-99.00 -99.0 -99.0 -99.0 -99.0 -99.0  -99.  -99.
   30.-99.00 -99.0 -99.0 -99.0 -99.0 -99.0 -99.0 -99.0 -99.0 -99.0-99.00 -99.0 -99.0 -99.0 -99.0 -99.0  -99.  -99.
   45.-99.00 -99.0 -99.0 -99.0 -99.0 -99.0 -99.0 -99.0 -99.0 -99.0-99.00 -99.0 -99.0 -99.0 -99.0 -99.0  -99.  -99.
   60.-99.00 -99.0 -99.0 -99.0 -99.0 -99.0 -99.0 -99.0 -99.0 -99.0-99.00 -99.0 -99.0 -99.0 -99.0 -99.0  -99.  -99.
   75.-99.00 -99.0 -99.0 -99.0 -99.0 -99.0 -99.0 -99.0 -99.0 -99.0-99.00 -99.0 -99.0 -99.0 -99.0 -99.0  -99.  -99.
   90.-99.00 -99.0 -99.0 -99.0 -99.0 -99.0 -99.0 -99.0 -99.0 -99.0-99.00 -99.0 -99.0 -99.0 -99.0 -99.0  -99.  -99.
  120.-99.00 -99.0 -99.0 -99.0 -99.0 -99.0 -99.0 -99.0 -99.0 -99.0-99.00 -99.0 -99.0 -99.0 -99.0 -99.0  -99.  -99.
  150.-99.00 -99.0 -99.0 -99.0 -99.0 -99.0 -99.0 -99.0 -99.0 -99.0-99.00 -99.0 -99.0 -99.0 -99.0 -99.0  -99.  -99.
                    
    5.-99.00-99.00-99.00-99.00
   15.-99.00-99.00-99.00-99.00
   30.-99.00-99.00-99.00-99.00
   45.-99.00-99.00-99.00-99.00
   60.-99.00-99.00-99.00-99.00
   75.-99.00-99.00-99.00-99.00
   90.-99.00-99.00-99.00-99.00
  120.-99.00-99.00-99.00-99.00
  150.-99.00-99.00-99.00-99.00
*CULTIVAR           
CI0004 Veracruz Black   VB0001 12.00 0.660 57.92  6.00 15.00 55.49 15.00 1.000 500.0 400.0  1.00 1.100 22.00  4.50 20.00  70.0 0.265 0.043
