*MODEL INPUT FILE            B     1     1     1   999     0
*FILES              
MODEL          CRGRO048
FILEX          UFQU9501.TMX                                                                                 
FILEA          UFQU9501.TMA                                                                                 
FILET          UFQU9501.TMT                                                                                 
SPECIES        TMGRO048.SPE C:\DSSAT48\GENOTYPE\                                                            
ECOTYPE        TMGRO048.ECO C:\DSSAT48\GENOTYPE\                                                            
CULTIVAR       TMGRO048.CUL C:\DSSAT48\GENOTYPE\                                                            
PESTS          TMGRO048.PST C:\DSSAT48\PEST\                                                                
SOILS          SOIL.SOL     C:\DSSAT48\SOIL\                                                                
WEATHERW       UFQU9501.WTH C:\DSSAT48\Weather\                                                             
OUTPUT         OVERVIEW
*SIMULATION CONTROL 
                   1     1     S 1995076  2150 Potential growth         
                   N     N     N     N     N     N     N     N     M
                   M     M     E     R     S     L     R     1     G     R     2     D     0
                   R     A     R     N     R
                   N     Y     Y     1     Y     Y     Y     Y     N     N     Y     N     N
!AUTOMATIC MANAGEM  
                   -99     -99   40.  100.   30.   45.   40.
                 30.   80.  100. GS000 IR005  10.0 1.000
                200.   50.   25. SI001 SI001
                100.    60   20.
                   177     -99   75.    0.
*EXP.DETAILS        
  1UFQU9501 TM SPRING 1995,AGRISET,DRIP-IRR.,QUINCY,FL                     
*TREATMENTS         
  1 1 0 0 95S-Auto irr. N-B "off"  
*CULTIVARS          
   TM TM0005 Agriset 761 10' 
*FIELDS             
   UFQU0001 UFQU9501   0.0    0. DR000    0. 100.0  0000 SA     180. IBTM910017-99.00 -99.0
    -99.0000000000  -99.0000000000   -99.000               1.0  100.   1.0 -99.0   -99   -99
*INITIAL CONDITIONS 
   99    1995048     1     0  1.00  1.00 -99.0   -99 -9.00 -9.00  -99.  -99.
      5. 0.198   0.0   0.0
     15. 0.198   0.0   0.0
     25. 0.198   0.0   0.0
     34. 0.226   0.0   0.0
     43. 0.226   0.0   0.0
     53. 0.250   0.0   0.0
     64. 0.250   0.0   0.0
     83. 0.281   0.0   0.0
    102. 0.281   0.0   0.0
    123. 0.291   0.0   0.0
    145. 0.291   0.0   0.0
    175. 0.272   0.0   0.0
    203. 0.263   0.0   0.0
*PLANTING DETAILS   
   1995087     -99   0.9   0.9     T     R  183.   90.   1.0    3.   27.  25.0   1.0 -99.0
*IRRIGATION         
   1.000   20.   80.   95. GS000 IR001   0.0
   1995001 IR005   1.9
   1995002 IR005   1.9
   1995003 IR005   1.9
   1995004 IR005   1.9
   1995005 IR005   1.9
   1995006 IR005   1.9
   1995007 IR005   1.9
   1995008 IR005   1.9
   1995009 IR005   1.9
   1995087 IR005   1.9
   1995089 IR005   1.9
   1995091 IR005   1.9
   1995093 IR005   1.9
   1995095 IR005   1.9
   1995097 IR005   1.9
   1995099 IR005   1.9
   1995110 IR005   1.9
   1995111 IR005   1.9
   1995112 IR005   1.9
   1995113 IR005   1.9
   1995114 IR005   1.9
   1995115 IR005   3.8
   1995116 IR005   3.8
   1995117 IR005   3.8
   1995118 IR005   3.8
   1995119 IR005   3.8
   1995120 IR005   3.8
   1995121 IR005   3.8
   1995122 IR005   3.8
   1995123 IR005   3.8
   1995124 IR005   3.8
   1995125 IR005   3.8
   1995126 IR005   3.8
   1995127 IR005   3.8
   1995128 IR005   3.8
   1995129 IR005   3.8
   1995130 IR005   3.8
   1995131 IR005   3.8
   1995132 IR005   3.8
   1995133 IR005   3.8
   1995134 IR005   3.8
   1995135 IR005   7.6
   1995136 IR005   7.6
   1995137 IR005   7.6
   1995138 IR005   7.6
   1995139 IR005   7.6
   1995140 IR005   7.6
   1995141 IR005   7.6
   1995142 IR005   7.6
   1995143 IR005   7.6
   1995144 IR005   7.6
   1995145 IR005   7.6
   1995146 IR005   7.6
   1995147 IR005   7.6
   1995148 IR005   7.6
   1995149 IR005   7.6
   1995150 IR005   7.6
   1995151 IR005   7.6
   1995152 IR005   7.6
   1995153 IR005   7.6
   1995154 IR005   7.6
   1995155 IR005   7.6
   1995156 IR005   7.6
   1995157 IR005   7.6
   1995158 IR005   7.6
   1995159 IR005   7.6
   1995160 IR005   7.6
   1995161 IR005   7.6
   1995162 IR005   7.6
   1995163 IR005   7.6
   1995164 IR005   7.6
   1995165 IR005   7.6
   1995166 IR005   7.6
   1995167 IR005   7.6
   1995168 IR005   7.6
   1995169 IR005   7.6
   1995170 IR005   7.6
   1995171 IR005   7.6
   1995172 IR005   7.6
   1995173 IR005   7.6
   1995174 IR005   7.6
   1995175 IR005   7.6
   1995176 IR005   7.6
   1995177 IR005   7.6
   1995178 IR005   7.6
   1995179 IR005   7.6
   1995180 IR005   7.6
   1995181 IR005   7.6
   1995182 IR005   7.6
   1995183 IR005   7.6
   1995184 IR005   7.6
   1995185 IR005   7.6
   1995186 IR005   7.6
   1995187 IR005   7.6
   1995188 IR005   7.6
   1995189 IR005   7.6
   1995190 IR005   7.6
*FERTILIZERS        
   1995077 FE001 AP004    5.  200.    0.    0.    0.    0.     0
*RESIDUES           
*CHEMICALS          
*TILLAGE            
*ENVIRONMENT        
*HARVEST            
   1995177 GS000   -99   -99  100.    0.
*SOIL               
 IBTM910017  SCS         SA     180.   Orangeburg Sandy Loam                           
 Quincy      USA          30.000 -86.400 Loamy,silic,hyperth Gross. Paleud(17)             
 -99    0.13   9.0  0.27   84.  1.00  0.96 IB001 IB001 IB001 -99  
    5.       0.125 0.198 0.294 1.000  -99.  1.49 1.730 -99.0 -99.0 -99.0 -99.0-99.00-99.00-99.00-99.00
   15.       0.125 0.198 0.294 0.874  -99.  1.49 1.730 -99.0 -99.0 -99.0 -99.0-99.00-99.00-99.00-99.00
   25.       0.125 0.198 0.294 0.874  -99.  1.49 1.730 -99.0 -99.0 -99.0 -99.0-99.00-99.00-99.00-99.00
   34.       0.117 0.226 0.323 0.351  -99.  1.41 0.400 -99.0 -99.0 -99.0 -99.0-99.00-99.00-99.00-99.00
   43.       0.117 0.226 0.323 0.351  -99.  1.41 0.400 -99.0 -99.0 -99.0 -99.0-99.00-99.00-99.00-99.00
   53.       0.138 0.250 0.332 0.310  -99.  1.44 0.200 -99.0 -99.0 -99.0 -99.0-99.00-99.00-99.00-99.00
   64.       0.138 0.250 0.332 0.310  -99.  1.44 0.200 -99.0 -99.0 -99.0 -99.0-99.00-99.00-99.00-99.00
   83.       0.167 0.281 0.331 0.302  -99.  1.57 0.140 -99.0 -99.0 -99.0 -99.0-99.00-99.00-99.00-99.00
  102.       0.167 0.281 0.331 0.302  -99.  1.57 0.140 -99.0 -99.0 -99.0 -99.0-99.00-99.00-99.00-99.00
  123.       0.182 0.291 0.334 0.077  -99.  1.59 0.160 -99.0 -99.0 -99.0 -99.0-99.00-99.00-99.00-99.00
  145.       0.182 0.291 0.334 0.077  -99.  1.59 0.160 -99.0 -99.0 -99.0 -99.0-99.00-99.00-99.00-99.00
  175.       0.162 0.272 0.320 0.036  -99.  1.61 0.090 -99.0 -99.0 -99.0 -99.0-99.00-99.00-99.00-99.00
  203.       0.154 0.263 0.319 0.006  -99.  1.58 0.030 -99.0 -99.0 -99.0 -99.0-99.00-99.00-99.00-99.00
                    
    5.-99.00 -99.0 -99.0 -99.0 -99.0 -99.0 -99.0 -99.0 -99.0 -99.0-99.00 -99.0 -99.0 -99.0 -99.0 -99.0  -99.  -99.
   15.-99.00 -99.0 -99.0 -99.0 -99.0 -99.0 -99.0 -99.0 -99.0 -99.0-99.00 -99.0 -99.0 -99.0 -99.0 -99.0  -99.  -99.
   25.-99.00 -99.0 -99.0 -99.0 -99.0 -99.0 -99.0 -99.0 -99.0 -99.0-99.00 -99.0 -99.0 -99.0 -99.0 -99.0  -99.  -99.
   34.-99.00 -99.0 -99.0 -99.0 -99.0 -99.0 -99.0 -99.0 -99.0 -99.0-99.00 -99.0 -99.0 -99.0 -99.0 -99.0  -99.  -99.
   43.-99.00 -99.0 -99.0 -99.0 -99.0 -99.0 -99.0 -99.0 -99.0 -99.0-99.00 -99.0 -99.0 -99.0 -99.0 -99.0  -99.  -99.
   53.-99.00 -99.0 -99.0 -99.0 -99.0 -99.0 -99.0 -99.0 -99.0 -99.0-99.00 -99.0 -99.0 -99.0 -99.0 -99.0  -99.  -99.
   64.-99.00 -99.0 -99.0 -99.0 -99.0 -99.0 -99.0 -99.0 -99.0 -99.0-99.00 -99.0 -99.0 -99.0 -99.0 -99.0  -99.  -99.
   83.-99.00 -99.0 -99.0 -99.0 -99.0 -99.0 -99.0 -99.0 -99.0 -99.0-99.00 -99.0 -99.0 -99.0 -99.0 -99.0  -99.  -99.
  102.-99.00 -99.0 -99.0 -99.0 -99.0 -99.0 -99.0 -99.0 -99.0 -99.0-99.00 -99.0 -99.0 -99.0 -99.0 -99.0  -99.  -99.
  123.-99.00 -99.0 -99.0 -99.0 -99.0 -99.0 -99.0 -99.0 -99.0 -99.0-99.00 -99.0 -99.0 -99.0 -99.0 -99.0  -99.  -99.
  145.-99.00 -99.0 -99.0 -99.0 -99.0 -99.0 -99.0 -99.0 -99.0 -99.0-99.00 -99.0 -99.0 -99.0 -99.0 -99.0  -99.  -99.
  175.-99.00 -99.0 -99.0 -99.0 -99.0 -99.0 -99.0 -99.0 -99.0 -99.0-99.00 -99.0 -99.0 -99.0 -99.0 -99.0  -99.  -99.
  203.-99.00 -99.0 -99.0 -99.0 -99.0 -99.0 -99.0 -99.0 -99.0 -99.0-99.00 -99.0 -99.0 -99.0 -99.0 -99.0  -99.  -99.
                    
    5.-99.00-99.00-99.00-99.00
   15.-99.00-99.00-99.00-99.00
   25.-99.00-99.00-99.00-99.00
   34.-99.00-99.00-99.00-99.00
   43.-99.00-99.00-99.00-99.00
   53.-99.00-99.00-99.00-99.00
   64.-99.00-99.00-99.00-99.00
   83.-99.00-99.00-99.00-99.00
  102.-99.00-99.00-99.00-99.00
  123.-99.00-99.00-99.00-99.00
  145.-99.00-99.00-99.00-99.00
  175.-99.00-99.00-99.00-99.00
  203.-99.00-99.00-99.00-99.00
*CULTIVAR           
TM0005 Agriset 761 10'  TM0001 12.33 0.000 24.40  2.20 19.00 45.20 52.00 1.360 300.0 300.0  0.78 0.004 26.00300.00 54.00   8.5 0.300 0.050
