*MODEL INPUT FILE            B     1     1     1   999     0
*FILES              
MODEL          CRGRO048
FILEX          UCCO9301.SUX                                                                                 
FILEA          UCCO9301.SUA                                                                                 
FILET          UCCO9301.SUT                                                                                 
SPECIES        SUGRO048.SPE C:\DSSAT48\GENOTYPE\                                                            
ECOTYPE        SUGRO048.ECO C:\DSSAT48\GENOTYPE\                                                            
CULTIVAR       SUGRO048.CUL C:\DSSAT48\GENOTYPE\                                                            
PESTS          SUGRO048.PST C:\DSSAT48\PEST\                                                                
SOILS          CO.SOL       C:\DSSAT48\SOIL\                                                                
WEATHERW       UCCO9301.WTH C:\DSSAT48\Weather\                                                             
OUTPUT         OVERVIEW
*SIMULATION CONTROL 
                   1     1     S 1993001  2150 CORDOBA PP91. VILLALOBOS 
                   Y     N     N     N     N     N     N     N     M
                   M     M     E     R     S     L     R     1     G     R     2     D     0
                   R     D     R     N     M
                   N     Y     Y     1     Y     N     Y     Y     N     N     Y     N     N
!AUTOMATIC MANAGEM  
                   -99     -99   40.  100.   30.   40.   10.
                 30.   50.  100. GS000 IR001  10.0 1.000
                 30.   50.   25. FE001 GS000
                100.     1   20.
                     0     -99  100.    0.
*EXP.DETAILS        
  1UCCO9301 SU CORDOBA RESPONSE TO IRRI-N "OFF" VILLALOBOS ET AL. UNPUBLISH
*TREATMENTS         
  1 1 0 0 1993 I1  I               
*CULTIVARS          
   SU IB0009 E-353           
*FIELDS             
   UCCO0001 UCCO9301   0.0    0. DR000    0. 100.0 00000 -99    150. COSU910047-99.00 -99.0
      0.0000000000    0.0000000000     0.000               1.0  100.   1.0   0.0   -99   -99
*INITIAL CONDITIONS 
   WH    1993152   500     0  0.00  0.00 -99.0     0  0.53  0.00  100.   30.
      5. 0.176 0.200  1.90
     15. 0.176 0.200  1.90
     30. 0.176 0.200  1.90
     45. 0.176 0.200  1.90
     60. 0.176 0.200  1.90
     90. 0.176 0.200  1.90
    120. 0.176 0.200  1.90
    150. 0.176 0.200  1.90
*PLANTING DETAILS   
   1993158     -99   7.1   7.1     S     R   70.    0.   4.0  -99.  -99. -99.0 -99.0   0.0
*IRRIGATION         
   1.000   30.   75.  -99. GS000 IR001  10.0
        21 IR005   6.0
        29 IR005  49.0
        36 IR005  39.0
        39 IR005  25.0
        44 IR005  29.0
        50 IR005  30.0
        54 IR005  26.0
        58 IR005  23.0
        64 IR005  36.0
        71 IR005  46.0
        77 IR005  21.0
*FERTILIZERS        
   2000001 FE005 AP002   10.   50.    0.    0.    0.    0.   -99
   2000040 FE005 AP002   10.  125.    0.    0.    0.    0.   -99
*RESIDUES           
*CHEMICALS          
*TILLAGE            
*ENVIRONMENT        
*HARVEST            
*SOIL               
 COSU910047  -99         -99    150.   Granja Sandy Loamx                              
 Cordoba     Spain        37.800  -4.850 Granja sandy loam west. Cordoba, Spain            
 R      0.18   6.0  0.50   77.  1.00  1.00 SA001 SA001 SA001 -99  
    5.       0.080 0.240 0.340 1.000  -99.  1.60 -99.0 -99.0 -99.0 -99.0  -9.0  0.00-99.00-99.00-99.00
   15.       0.080 0.240 0.340 1.000  -99.  1.60 -99.0 -99.0 -99.0 -99.0  -9.0  0.00-99.00-99.00-99.00
   30.       0.080 0.240 0.340 1.000  -99.  1.60 -99.0 -99.0 -99.0 -99.0  -9.0  0.00-99.00-99.00-99.00
   45.       0.080 0.240 0.360 0.800  -99.  1.60 -99.0 -99.0 -99.0 -99.0  -9.0  0.00-99.00-99.00-99.00
   60.       0.080 0.240 0.360 0.800  -99.  1.60 -99.0 -99.0 -99.0 -99.0  -9.0  0.00-99.00-99.00-99.00
   90.       0.080 0.240 0.380 0.600  -99.  1.60 -99.0 -99.0 -99.0 -99.0  -9.0  0.00-99.00-99.00-99.00
  120.       0.080 0.240 0.370 0.400  -99.  1.60 -99.0 -99.0 -99.0 -99.0  -9.0  0.00-99.00-99.00-99.00
  150.       0.080 0.240 0.380 0.200  -99.  1.60 -99.0 -99.0 -99.0 -99.0  -9.0  0.00-99.00-99.00-99.00
                    
    5.-99.00 -99.0 -99.0 -99.0 -99.0 -99.0 -99.0 -99.0 -99.0 -99.0-99.00 -99.0 -99.0 -99.0 -99.0 -99.0  -99.  -99.
   15.-99.00 -99.0 -99.0 -99.0 -99.0 -99.0 -99.0 -99.0 -99.0 -99.0-99.00 -99.0 -99.0 -99.0 -99.0 -99.0  -99.  -99.
   30.-99.00 -99.0 -99.0 -99.0 -99.0 -99.0 -99.0 -99.0 -99.0 -99.0-99.00 -99.0 -99.0 -99.0 -99.0 -99.0  -99.  -99.
   45.-99.00 -99.0 -99.0 -99.0 -99.0 -99.0 -99.0 -99.0 -99.0 -99.0-99.00 -99.0 -99.0 -99.0 -99.0 -99.0  -99.  -99.
   60.-99.00 -99.0 -99.0 -99.0 -99.0 -99.0 -99.0 -99.0 -99.0 -99.0-99.00 -99.0 -99.0 -99.0 -99.0 -99.0  -99.  -99.
   90.-99.00 -99.0 -99.0 -99.0 -99.0 -99.0 -99.0 -99.0 -99.0 -99.0-99.00 -99.0 -99.0 -99.0 -99.0 -99.0  -99.  -99.
  120.-99.00 -99.0 -99.0 -99.0 -99.0 -99.0 -99.0 -99.0 -99.0 -99.0-99.00 -99.0 -99.0 -99.0 -99.0 -99.0  -99.  -99.
  150.-99.00 -99.0 -99.0 -99.0 -99.0 -99.0 -99.0 -99.0 -99.0 -99.0-99.00 -99.0 -99.0 -99.0 -99.0 -99.0  -99.  -99.
                    
    5.-99.00-99.00-99.00-99.00
   15.-99.00-99.00-99.00-99.00
   30.-99.00-99.00-99.00-99.00
   45.-99.00-99.00-99.00-99.00
   60.-99.00-99.00-99.00-99.00
   90.-99.00-99.00-99.00-99.00
  120.-99.00-99.00-99.00-99.00
  150.-99.00-99.00-99.00-99.00
*CULTIVAR           
IB0009 E-353            SU0702 15.00-0.086 18.60  6.50 12.20 25.00 14.00 1.900 260.0 200.0  0.80 0.110 24.00  2.00  4.50  73.0 0.140 0.450
