*MODEL INPUT FILE            B     1     1     1   999     0
*FILES              
MODEL          SWCER048
FILEX          UFCI0201.SWX                                                                                 
FILEA          UFCI0201.SWA                                                                                 
FILET          UFCI0201.SWT                                                                                 
SPECIES        SWCER048.SPE C:\DSSAT48\GENOTYPE\                                                            
ECOTYPE        SWCER048.ECO C:\DSSAT48\GENOTYPE\                                                            
CULTIVAR       SWCER048.CUL C:\DSSAT48\GENOTYPE\                                                            
PESTS          SWCER048.PST C:\DSSAT48\PEST\                                                                
SOILS          SOIL.SOL     C:\DSSAT48\SOIL\                                                                
WEATHERW       UFCI0201.WTH C:\DSSAT48\Weather\                                                             
OUTPUT         OVERVIEW
*SIMULATION CONTROL 
                   1     1     S 2002001  2150 DEFAULT SIMULATION CONTR 
                   Y     Y     N     N     N     N     N     Y     M
                   M     M     E     R     S     R     R     1     G     R     2     D     0
                   R     A     R     R     R
                   N     Y     Y     1     Y     N     Y     Y     N     N     Y     N     N
!AUTOMATIC MANAGEM  
                   -99     -99   40.  100.   30.   40.   10.
                 30.   90.  100. GS000 IR004  10.0 1.000
                 30.   50.   25. FE001 GS000
                100.     1   20.
                     0     -99  100.    0.
*EXP.DETAILS        
  1UFCI0201 SW 2002 SWEET CORN NRATE STUDY                                 
*TREATMENTS         
  1 1 1 0 0N                       
*CULTIVARS          
   SW SW0001 GSS0966 sh2     
*FIELDS             
   UFCA0001 UFCI0201   0.0  -99.   -99  -99. 100.0   -99 S      -99. IBMZ910214-99.00 -99.0
    -99.0000000000  -99.0000000000   -99.000               1.0  100.   1.0 -99.0   -99   -99
*INITIAL CONDITIONS 
   BW    2002114     0     0  1.00  1.00 -99.0  1000  2.00  0.00  100.    5.
      5. 0.056 0.100 0.100
     15. 0.056 0.100 0.100
     30. 0.056 0.100 0.100
     45. 0.056 0.100 0.100
     60. 0.056 0.100 0.100
     90. 0.076 0.100 0.100
    120. 0.076 0.100 0.100
    150. 0.050 0.100 0.100
    180. 0.130 0.100 0.100
*PLANTING DETAILS   
   2002116 2002121   5.5   5.5     S     R   76.   90.   2.0  -99.  -99. -99.0 -99.0 -99.0
*IRRIGATION         
   1.000    0.    0.    0. GS000 IR001   0.0
*FERTILIZERS        
   2002116 FE001 AP003    0.    0.  -99.  -99.  -99.  -99.   -99
*RESIDUES           
*CHEMICALS          
*TILLAGE            
*ENVIRONMENT        
*HARVEST            
   2002185 GS000     H     A  100.    0.
*SOIL               
 IBMZ910214  Gainesville S      -99.   Millhopper Fine Sand                            
 Gainesville USA          29.600 -82.370 Loamy,silic,hyperth Arenic Paleudult              
 -99    0.18   2.0  0.65   60.  1.00  0.92 IB001 IB001 IB001 -99  
    5.       0.026 0.096 0.345 1.000  7.40  1.66 0.670   1.7   0.9   0.0  -9.0  7.00-99.00 20.00-99.00
   15.       0.025 0.105 0.345 1.000  7.40  1.66 0.670   1.7   0.9   0.0  -9.0  7.00-99.00-99.00-99.00
   30.       0.075 0.120 0.345 0.700  14.8  1.66 0.170   2.4   2.6   0.0  -9.0  7.00-99.00-99.00-99.00
   45.       0.025 0.086 0.345 0.300  3.70  1.66 0.170   2.4   2.6   0.0  -9.0  7.00-99.00-99.00-99.00
   60.       0.025 0.072 0.345 0.300  3.70  1.66 0.170   2.4   2.6   0.0  -9.0  7.00-99.00-99.00-99.00
   90.       0.028 0.072 0.345 0.100  3.70  1.66 0.170   2.4   2.6   0.0  -9.0  7.00-99.00-99.00-99.00
  120.       0.028 0.080 0.345 0.100 0.100  1.66 0.180   7.7   3.1   0.0  -9.0  7.00-99.00-99.00-99.00
  150.       0.029 0.090 0.345 0.050 0.100  1.66 0.150   7.7   3.1   0.0  -9.0  7.00-99.00-99.00-99.00
  180.       0.029 0.090 0.345 0.050 0.100  1.66 0.100   7.7   3.1   0.0  -9.0  7.00-99.00-99.00-99.00
                    
    5.-99.00 -99.0 -99.0 -99.0 -99.0 -99.0 -99.0 -99.0 -99.0 -99.0-99.00 -99.0 -99.0 -99.0 -99.0 -99.0  -99.  -99.
   15.-99.00 -99.0 -99.0 -99.0 -99.0 -99.0 -99.0 -99.0 -99.0 -99.0-99.00 -99.0 -99.0 -99.0 -99.0 -99.0  -99.  -99.
   30.-99.00 -99.0 -99.0 -99.0 -99.0 -99.0 -99.0 -99.0 -99.0 -99.0-99.00 -99.0 -99.0 -99.0 -99.0 -99.0  -99.  -99.
   45.-99.00 -99.0 -99.0 -99.0 -99.0 -99.0 -99.0 -99.0 -99.0 -99.0-99.00 -99.0 -99.0 -99.0 -99.0 -99.0  -99.  -99.
   60.-99.00 -99.0 -99.0 -99.0 -99.0 -99.0 -99.0 -99.0 -99.0 -99.0-99.00 -99.0 -99.0 -99.0 -99.0 -99.0  -99.  -99.
   90.-99.00 -99.0 -99.0 -99.0 -99.0 -99.0 -99.0 -99.0 -99.0 -99.0-99.00 -99.0 -99.0 -99.0 -99.0 -99.0  -99.  -99.
  120.-99.00 -99.0 -99.0 -99.0 -99.0 -99.0 -99.0 -99.0 -99.0 -99.0-99.00 -99.0 -99.0 -99.0 -99.0 -99.0  -99.  -99.
  150.-99.00 -99.0 -99.0 -99.0 -99.0 -99.0 -99.0 -99.0 -99.0 -99.0-99.00 -99.0 -99.0 -99.0 -99.0 -99.0  -99.  -99.
  180.-99.00 -99.0 -99.0 -99.0 -99.0 -99.0 -99.0 -99.0 -99.0 -99.0-99.00 -99.0 -99.0 -99.0 -99.0 -99.0  -99.  -99.
                    
    5.-99.00-99.00-99.00-99.00
   15.-99.00-99.00-99.00-99.00
   30.-99.00-99.00-99.00-99.00
   45.-99.00-99.00-99.00-99.00
   60.-99.00-99.00-99.00-99.00
   90.-99.00-99.00-99.00-99.00
  120.-99.00-99.00-99.00-99.00
  150.-99.00-99.00-99.00-99.00
  180.-99.00-99.00-99.00-99.00
*CULTIVAR           
SW0001 GSS0966 sh2      IB0001  150.0 0.300 680.0 600.0  5.50 43.00
