*MODEL INPUT FILE            B     1     1     1   999     0
*FILES              
MODEL          PRFRM048
FILEX          UFGA2101.BHX                                                                                 
FILEA          UFGA2101.BHA                                                                                 
FILET          UFGA2101.BHT                                                                                 
SPECIES        BHFRM048.SPE C:\DSSAT48\GENOTYPE\                                                            
ECOTYPE        BHFRM048.ECO C:\DSSAT48\GENOTYPE\                                                            
CULTIVAR       BHFRM048.CUL C:\DSSAT48\GENOTYPE\                                                            
PESTS          BHFRM048.PST C:\DSSAT48\PEST\                                                                
SOILS          UF.SOL       C:\DSSAT48\SOIL\                                                                
WEATHERW       UFGA2101.WTH C:\DSSAT48\Weather\                                                             
OUTPUT         OVERVIEW
*SIMULATION CONTROL 
                   1     1     S 2021091  2150 BAHIA                    
                   Y     Y     N     N     N     N     N     N     M
                   M     M     E     R     S     L     R     1     P     R     2     D     0
                   R     N     R     N     R
                   N     Y     Y     1     Y     Y     Y     Y     N     N     Y     N     N
!AUTOMATIC MANAGEM  
                   -99     -99    0.    0.    0.    0.    0.
                  0.    0.    0. GS000 IR001   0.0 0.000
                  0.    0.    0. FE001 GS000
                  0.     0    0.
                     0     -99    0.    0.
*EXP.DETAILS        
  1UFGA2101 BH BEEF RESEARCH UNIT - CLIPPED, UNCLIPPED, AND CLIPPED & FER  
*TREATMENTS         
  1 1 1 0 clipped                  
*CULTIVARS          
   BH UF0001 Pensacola       
*FIELDS             
   UFGA2101 UFGA2101   0.0  -99.   -99  -99. 100.0   -99 S      -99. UFGA210001-99.00 -99.0
    -99.0000000000  -99.0000000000   -99.000               1.0  100.   1.0 -99.0   -99   -99
*INITIAL CONDITIONS 
   BH    2021091  1000     0  1.00  1.00 -99.0  3000  0.80  0.00  100.   20.
      5. 0.118   0.0 0.300
     15. 0.118   0.0 0.300
     27. 0.118   0.0 0.300
     39. 0.118   0.0 0.300
     51. 0.118   0.0 0.300
     71. 0.125   0.0 0.300
     91. 0.125   0.0 0.300
    147. 0.118   0.0 0.300
    203. 0.118   0.0 0.300
*PLANTING DETAILS   
   2021091     -99 999.0 999.0     T     R    2.    0.   2.0 9999.   90.  15.0   1.0   0.0
*IRRIGATION         
   1.000    0.    0.    0. GS000 IR001   0.0
*FERTILIZERS        
   2021103 FE001   001    0.   29.  -99.  -99.  -99.  -99.   -99
*RESIDUES           
*CHEMICALS          
*TILLAGE            
*ENVIRONMENT        
*HARVEST            
   2022335 GS000     C   -99  100.  100.
*SOIL               
 UFGA210001  USGS        S      -99. Myakka                                            
 RU          USA          27.400  -0.099 Sandy, siliceous, hyperthermic Aeric Alaquods     
 G      0.13   5.9  0.05   84.  1.00  0.90 IB001 IB001 IB001 -99  
    5.       0.050 0.118 0.409 1.000  21.0  1.50 1.000   1.5   0.8   0.0  -9.0  7.00-99.00-99.00-99.00
   15.       0.050 0.118 0.409 1.000  21.0  1.50 1.000   1.5   0.8   0.0  -9.0  7.00-99.00-99.00-99.00
   27.       0.050 0.118 0.409 1.000  21.0  1.50 0.130   2.4   2.8   0.0  -9.0  7.00-99.00-99.00-99.00
   39.       0.050 0.118 0.409 1.000  21.0  1.50 0.130   2.4   2.8   0.0  -9.0  7.00-99.00-99.00-99.00
   51.       0.050 0.118 0.409 1.000  21.0  1.50 0.130   2.4   2.8   0.0  -9.0  7.00-99.00-99.00-99.00
   71.       0.056 0.125 0.405 1.000  21.0  1.51 0.620   2.2   0.7   0.0  -9.0  7.00-99.00-99.00-99.00
   91.       0.056 0.125 0.405 1.000  21.0  1.51 0.620   2.2   0.7   0.0  -9.0  7.00-99.00-99.00-99.00
  147.       0.050 0.118 0.409 0.512  21.0  1.50 0.130   1.8   2.4   0.0  -9.0  7.00-99.00-99.00-99.00
  203.       0.050 0.118 0.409 0.512  21.0  1.50 0.130   1.8   2.4   0.0  -9.0  7.00-99.00-99.00-99.00
                    
    5.-99.00 -99.0 -99.0 -99.0 -99.0 -99.0 -99.0 -99.0 -99.0 -99.0-99.00 -99.0 -99.0 -99.0 -99.0 -99.0 0.930  -99.
   15.-99.00 -99.0 -99.0 -99.0 -99.0 -99.0 -99.0 -99.0 -99.0 -99.0-99.00 -99.0 -99.0 -99.0 -99.0 -99.0 0.930  -99.
   27.-99.00 -99.0 -99.0 -99.0 -99.0 -99.0 -99.0 -99.0 -99.0 -99.0-99.00 -99.0 -99.0 -99.0 -99.0 -99.0 0.120  -99.
   39.-99.00 -99.0 -99.0 -99.0 -99.0 -99.0 -99.0 -99.0 -99.0 -99.0-99.00 -99.0 -99.0 -99.0 -99.0 -99.0 0.120  -99.
   51.-99.00 -99.0 -99.0 -99.0 -99.0 -99.0 -99.0 -99.0 -99.0 -99.0-99.00 -99.0 -99.0 -99.0 -99.0 -99.0 0.120  -99.
   71.-99.00 -99.0 -99.0 -99.0 -99.0 -99.0 -99.0 -99.0 -99.0 -99.0-99.00 -99.0 -99.0 -99.0 -99.0 -99.0 0.570  -99.
   91.-99.00 -99.0 -99.0 -99.0 -99.0 -99.0 -99.0 -99.0 -99.0 -99.0-99.00 -99.0 -99.0 -99.0 -99.0 -99.0 0.570  -99.
  147.-99.00 -99.0 -99.0 -99.0 -99.0 -99.0 -99.0 -99.0 -99.0 -99.0-99.00 -99.0 -99.0 -99.0 -99.0 -99.0 0.120  -99.
  203.-99.00 -99.0 -99.0 -99.0 -99.0 -99.0 -99.0 -99.0 -99.0 -99.0-99.00 -99.0 -99.0 -99.0 -99.0 -99.0 0.120  -99.
                    
    5.-99.00-99.00-99.00-99.00
   15.-99.00-99.00-99.00-99.00
   27.-99.00-99.00-99.00-99.00
   39.-99.00-99.00-99.00-99.00
   51.-99.00-99.00-99.00-99.00
   71.-99.00-99.00-99.00-99.00
   91.-99.00-99.00-99.00-99.00
  147.-99.00-99.00-99.00-99.00
  203.-99.00-99.00-99.00-99.00
*CULTIVAR           
UF0001 Pensacola        G00001 12.50 0.200 99.00 10.00 18.00 33.00 25.00 1.800 180.0   2.0  0.01 0.020 15.00  2.05 20.00  78.0 0.115 0.035
