*MODEL INPUT FILE            B     1     1     1   999     0
*FILES              
MODEL          CRGRO048
FILEX          OHWO8801.SBX                                                                                 
FILEA          OHWO8801.SBA                                                                                 
FILET          OHWO8801.SBT                                                                                 
SPECIES        SBGRO048.SPE C:\DSSAT48\GENOTYPE\                                                            
ECOTYPE        SBGRO048.ECO C:\DSSAT48\GENOTYPE\                                                            
CULTIVAR       SBGRO048.CUL C:\DSSAT48\GENOTYPE\                                                            
PESTS          SBGRO048.PST C:\DSSAT48\PEST\                                                                
SOILS          SOIL.SOL     C:\DSSAT48\SOIL\                                                                
WEATHERW       OHWO8801.WTH C:\DSSAT48\Weather\                                                             
OUTPUT         OVERVIEW
*SIMULATION CONTROL 
                   1     1     S 1988122  2150 ASA 1988 STUDY, WILLIAMS 
                   Y     Y     Y     N     N     N     N     Y     M
                   M     M     E     R     S     L     R     1     G     R     2     D     0
                   R     R     R     R     M
                   N     Y     Y     1     Y     Y     Y     Y     N     N     Y     N     N
!AUTOMATIC MANAGEM  
                   -99     -99   40.  100.   30.   40.   10.
                 30.   50.  100. IB001 IB001  10.0 1.000
                 30.   50.   25. IB001 IB001
                100.     1   20.
                     0     -99  100.    0.
*EXP.DETAILS        
  1OHWO8801 SB ASA 1988 STUDY, WILLIAMS-82, IRRIGATED                      
*TREATMENTS         
  1 1 0 0 88 Williams-82, Irr-Ohio 
*CULTIVARS          
   SB IB0010 WILLIAMS-82 (3) 
*FIELDS             
   OHWO0001 OHWO8801   0.0    0. IB000    0. 100.0 00000 -99    153. IBSB910046-99.00 -99.0
    -99.0000000000  -99.0000000000   -99.000               1.0  100.   1.0 -99.0   -99   -99
*INITIAL CONDITIONS 
   SB    1988122   100     0  1.00  1.00 -99.0     0  0.00  0.00  100.    0.
      5. 0.222 0.900  1.50
     15. 0.222 0.900  1.50
     25. 0.222 0.900  1.50
     33. 0.223 0.900  1.50
     41. 0.223 0.900  1.50
     54. 0.252 0.900  1.50
     62. 0.252 0.800  1.00
     70. 0.252 0.600 0.500
     98. 0.196 0.600 0.500
    123. 0.196 0.600 0.500
    148. 0.196 0.600 0.500
    153. 0.196 0.600 0.500
*PLANTING DETAILS   
   1988122     -99  31.1  31.1     S     R   19.    0.   4.0  -99.  -99. -99.0 -99.0 -99.0
*IRRIGATION         
   1.000   30.   75.  -99. GS000 IR001   0.0
   1988147 IR001  38.0
   1988154 IR001  38.0
   1988161 IR001  38.0
   1988168 IR001  38.0
   1988175 IR001  38.0
   1988182 IR001  38.0
   1988189 IR001  38.0
   1988196 IR001  38.0
   1988210 IR001  38.0
   1988217 IR001  38.0
   1988224 IR001  39.0
   1988231 IR001  15.0
   1988238 IR001  15.0
   1988245 IR001   7.0
   1988259 IR001  25.0
   1988266 IR001  38.0
   1988273 IR001  38.0
   1988280 IR001  38.0
*FERTILIZERS        
*RESIDUES           
   1988122 RE001  4000  0.53  0.00  0.00  100.   15.   -99
*CHEMICALS          
*TILLAGE            
*ENVIRONMENT        
*HARVEST            
*SOIL               
 IBSB910046  Wooster     -99    153.   WOOSTER SILT LOAM                               
 -99         -99          -0.009  -0.099 WOOSTER SILT LOAM (FINE-LOAMY,MIXED MESIC TYPIC FR
 -99    0.13   8.8  0.40   84.  1.00  1.00 IB001 IB001 IB001 -99  
    5.       0.042 0.222 0.427 0.100  -99.  1.40 2.500 -99.0 -99.0 -99.0  -9.0  6.00-99.00-99.00-99.00
   15.       0.042 0.222 0.427 0.750  -99.  1.40 2.500 -99.0 -99.0 -99.0  -9.0  6.00-99.00-99.00-99.00
   25.       0.042 0.222 0.427 0.750  -99.  1.40 -99.0 -99.0 -99.0 -99.0  -9.0  5.50-99.00-99.00-99.00
   33.       0.083 0.223 0.427 0.500  -99.  1.50 -99.0 -99.0 -99.0 -99.0  -9.0  5.50-99.00-99.00-99.00
   41.       0.083 0.223 0.427 0.500  -99.  1.50 -99.0 -99.0 -99.0 -99.0  -9.0  5.50-99.00-99.00-99.00
   54.       0.112 0.252 0.372 0.350  -99.  1.50 -99.0 -99.0 -99.0 -99.0  -9.0  5.50-99.00-99.00-99.00
   62.       0.112 0.252 0.372 0.350  -99.  1.50 -99.0 -99.0 -99.0 -99.0  -9.0  5.50-99.00-99.00-99.00
   70.       0.112 0.252 0.372 0.350  -99.  1.50 -99.0 -99.0 -99.0 -99.0  -9.0  5.50-99.00-99.00-99.00
   98.       0.116 0.196 0.315 0.200  -99.  1.65 -99.0 -99.0 -99.0 -99.0  -9.0  5.60-99.00-99.00-99.00
  123.       0.116 0.196 0.315 0.200  -99.  1.65 -99.0 -99.0 -99.0 -99.0  -9.0  5.50-99.00-99.00-99.00
  148.       0.116 0.196 0.315 0.150  -99.  1.65 -99.0 -99.0 -99.0 -99.0  -9.0  5.50-99.00-99.00-99.00
  153.       0.116 0.196 0.315 0.150  -99.  1.53 -99.0 -99.0 -99.0 -99.0  -9.0  6.00-99.00-99.00-99.00
                    
    5.-99.00 -99.0 -99.0 -99.0 -99.0 -99.0 -99.0 -99.0 -99.0 -99.0-99.00 -99.0 -99.0 -99.0 -99.0 -99.0  -99.  -99.
   15.-99.00 -99.0 -99.0 -99.0 -99.0 -99.0 -99.0 -99.0 -99.0 -99.0-99.00 -99.0 -99.0 -99.0 -99.0 -99.0  -99.  -99.
   25.-99.00 -99.0 -99.0 -99.0 -99.0 -99.0 -99.0 -99.0 -99.0 -99.0-99.00 -99.0 -99.0 -99.0 -99.0 -99.0  -99.  -99.
   33.-99.00 -99.0 -99.0 -99.0 -99.0 -99.0 -99.0 -99.0 -99.0 -99.0-99.00 -99.0 -99.0 -99.0 -99.0 -99.0  -99.  -99.
   41.-99.00 -99.0 -99.0 -99.0 -99.0 -99.0 -99.0 -99.0 -99.0 -99.0-99.00 -99.0 -99.0 -99.0 -99.0 -99.0  -99.  -99.
   54.-99.00 -99.0 -99.0 -99.0 -99.0 -99.0 -99.0 -99.0 -99.0 -99.0-99.00 -99.0 -99.0 -99.0 -99.0 -99.0  -99.  -99.
   62.-99.00 -99.0 -99.0 -99.0 -99.0 -99.0 -99.0 -99.0 -99.0 -99.0-99.00 -99.0 -99.0 -99.0 -99.0 -99.0  -99.  -99.
   70.-99.00 -99.0 -99.0 -99.0 -99.0 -99.0 -99.0 -99.0 -99.0 -99.0-99.00 -99.0 -99.0 -99.0 -99.0 -99.0  -99.  -99.
   98.-99.00 -99.0 -99.0 -99.0 -99.0 -99.0 -99.0 -99.0 -99.0 -99.0-99.00 -99.0 -99.0 -99.0 -99.0 -99.0  -99.  -99.
  123.-99.00 -99.0 -99.0 -99.0 -99.0 -99.0 -99.0 -99.0 -99.0 -99.0-99.00 -99.0 -99.0 -99.0 -99.0 -99.0  -99.  -99.
  148.-99.00 -99.0 -99.0 -99.0 -99.0 -99.0 -99.0 -99.0 -99.0 -99.0-99.00 -99.0 -99.0 -99.0 -99.0 -99.0  -99.  -99.
  153.-99.00 -99.0 -99.0 -99.0 -99.0 -99.0 -99.0 -99.0 -99.0 -99.0-99.00 -99.0 -99.0 -99.0 -99.0 -99.0  -99.  -99.
                    
    5.-99.00-99.00-99.00-99.00
   15.-99.00-99.00-99.00-99.00
   25.-99.00-99.00-99.00-99.00
   33.-99.00-99.00-99.00-99.00
   41.-99.00-99.00-99.00-99.00
   54.-99.00-99.00-99.00-99.00
   62.-99.00-99.00-99.00-99.00
   70.-99.00-99.00-99.00-99.00
   98.-99.00-99.00-99.00-99.00
  123.-99.00-99.00-99.00-99.00
  148.-99.00-99.00-99.00-99.00
  153.-99.00-99.00-99.00-99.00
*CULTIVAR           
IB0010 WILLIAMS-82 (3)  SB0301 13.40 0.285 19.00  8.30 14.20 32.20 28.00 0.970 385.0 180.0  1.00 0.180 26.00  2.40 12.00  77.0 0.405 0.205
