*MODEL INPUT FILE            B     1     1     1   999     0
*FILES              
MODEL          PTSUB048
FILEX          DIJY9001.PTX                                                                                 
FILEA          DIJY9001.PTA                                                                                 
FILET          DIJY9001.PTT                                                                                 
SPECIES        PTSUB048.SPE C:\DSSAT48\GENOTYPE\                                                            
ECOTYPE        PTSUB048.ECO C:\DSSAT48\GENOTYPE\                                                            
CULTIVAR       PTSUB048.CUL C:\DSSAT48\GENOTYPE\                                                            
PESTS          PTSUB048.PST C:\DSSAT48\PEST\                                                                
SOILS          DI.SOL       C:\DSSAT48\SOIL\                                                                
WEATHERW       DIJY9001.WTH C:\DSSAT48\Weather\                                                             
OUTPUT         OVERVIEW
*SIMULATION CONTROL 
                   1     1     S 1990107  2150 DEFAULT SIMULATION CONTR 
                   Y     Y     N     N     N     N     N     Y     M
                   M     M     E     R     S     C     R     1     P     R     2     D     0
                   R     R     R     R     R
                   N     Y     Y     1     Y     Y     Y     Y     N     N     Y     N     N
!AUTOMATIC MANAGEM  
                   -99     -99   40.  100.   30.   40.   10.
                 30.   50.  100. GS000 IR001  10.0 1.000
                 30.   50.   25. FE001 GS000
                100.     1   20.
                     0     -99  100.    0.
*EXP.DETAILS        
  1DIJY9001 PT GROWTH DATA-DENMARK (EDLEFSEN, 1991)                        
*TREATMENTS         
  1 1 1 0 Kap-90-1                 
*CULTIVARS          
   PT DM0004 KAPTAH          
*FIELDS             
   DIJY9001 DIJY9001   0.0  -99.   -99  -99. 100.0   -99 S      -99. DIJY000002-99.00 -99.0
      9.1333332062   54.9000015259    12.000               1.0  100.   1.0 -99.0   -99   -99
*INITIAL CONDITIONS 
   99    1990107     0     0  1.00  1.00 -99.0     0  0.00  0.00  100.    0.
      5. 0.110 0.100  1.30
     15. 0.110 0.100  1.30
     30. 0.110 0.100  1.30
     45. 0.098 0.100  1.30
     60. 0.098 0.100  1.30
     90. 0.083 0.100  1.30
    120. 0.083 0.100  1.30
    150. 0.083 0.100  1.30
*PLANTING DETAILS   
   1990107     -99   4.0   4.0     S     9   75.  -99.   6.0  444.  -99. -99.0 -99.0   0.5
*IRRIGATION         
   1.000   30.   75.  -99. GS000 IR001   0.0
   1990150 IR005  10.0
   1990171 IR005  10.0
   1990192 IR005   5.0
   1990204 IR005  30.0
   1990212 IR005  25.0
   1990220 IR005  27.0
*FERTILIZERS        
   1990107 FE001   001    6.  180.  -99.  -99.  -99.  -99.   -99
*RESIDUES           
*CHEMICALS          
*TILLAGE            
*ENVIRONMENT        
*HARVEST            
   1990267 GS000   -99   -99  100.    0.
*SOIL               
 DIJY000002  -99         S      -99.   Sand                                            
 Jyndevad    Denmark      54.900   9.130 -99                                               
 G      0.13   6.0  0.50   61.  1.00  1.00 IB001 IB001 IB001 -99  
    5.       0.097 0.186 0.470 1.000  21.0  1.30 1.900   3.9   4.1 -99.0  -9.0  7.00-99.00-99.00-99.00
   15.       0.097 0.186 0.470 1.000  21.0  1.30 1.900   3.9   4.1 -99.0  -9.0  7.00-99.00-99.00-99.00
   30.       0.097 0.186 0.470 1.000  21.0  1.30 1.900   3.9   4.1 -99.0  -9.0  7.00-99.00-99.00-99.00
   45.       0.086 0.165 0.455 0.407  21.0  1.35 1.500   3.9   4.1 -99.0  -9.0  7.00-99.00-99.00-99.00
   60.       0.086 0.165 0.455 0.407  21.0  1.35 1.500   3.9   4.1 -99.0  -9.0  7.00-99.00-99.00-99.00
   90.       0.073 0.139 0.437 0.122  21.0  1.41 1.000   3.9   4.1 -99.0  -9.0  7.00-99.00-99.00-99.00
  120.       0.073 0.139 0.437 0.122  21.0  1.41 1.000   3.9   4.1 -99.0  -9.0  7.00-99.00-99.00-99.00
  150.       0.073 0.139 0.437 0.122  21.0  1.41 1.000   3.9   4.1 -99.0  -9.0  7.00-99.00-99.00-99.00
                    
    5.-99.00 -99.0 -99.0 -99.0 -99.0 -99.0 -99.0 -99.0 -99.0 -99.0-99.00 -99.0 -99.0 -99.0 -99.0 -99.0 1.550  -99.
   15.-99.00 -99.0 -99.0 -99.0 -99.0 -99.0 -99.0 -99.0 -99.0 -99.0-99.00 -99.0 -99.0 -99.0 -99.0 -99.0 1.550  -99.
   30.-99.00 -99.0 -99.0 -99.0 -99.0 -99.0 -99.0 -99.0 -99.0 -99.0-99.00 -99.0 -99.0 -99.0 -99.0 -99.0 1.550  -99.
   45.-99.00 -99.0 -99.0 -99.0 -99.0 -99.0 -99.0 -99.0 -99.0 -99.0-99.00 -99.0 -99.0 -99.0 -99.0 -99.0 1.230  -99.
   60.-99.00 -99.0 -99.0 -99.0 -99.0 -99.0 -99.0 -99.0 -99.0 -99.0-99.00 -99.0 -99.0 -99.0 -99.0 -99.0 1.230  -99.
   90.-99.00 -99.0 -99.0 -99.0 -99.0 -99.0 -99.0 -99.0 -99.0 -99.0-99.00 -99.0 -99.0 -99.0 -99.0 -99.0 0.900  -99.
  120.-99.00 -99.0 -99.0 -99.0 -99.0 -99.0 -99.0 -99.0 -99.0 -99.0-99.00 -99.0 -99.0 -99.0 -99.0 -99.0 0.900  -99.
  150.-99.00 -99.0 -99.0 -99.0 -99.0 -99.0 -99.0 -99.0 -99.0 -99.0-99.00 -99.0 -99.0 -99.0 -99.0 -99.0 0.900  -99.
                    
    5.-99.00-99.00-99.00-99.00
   15.-99.00-99.00-99.00-99.00
   30.-99.00-99.00-99.00-99.00
   45.-99.00-99.00-99.00-99.00
   60.-99.00-99.00-99.00-99.00
   90.-99.00-99.00-99.00-99.00
  120.-99.00-99.00-99.00-99.00
  150.-99.00-99.00-99.00-99.00
*CULTIVAR           
DM0004 KAPTAH           IB0001  1500.  26.0   0.5   0.2  22.0
