*MODEL INPUT FILE            B     1     1     1   999     0
*FILES              
MODEL          CRGRO048
FILEX          IUAM9702.SBX                                                                                 
FILEA          IUAM9702.SBA                                                                                 
FILET          IUAM9702.SBT                                                                                 
SPECIES        SBGRO048.SPE C:\DSSAT48\GENOTYPE\                                                            
ECOTYPE        SBGRO048.ECO C:\DSSAT48\GENOTYPE\                                                            
CULTIVAR       SBGRO048.CUL C:\DSSAT48\GENOTYPE\                                                            
PESTS          SBGRO048.PST C:\DSSAT48\PEST\                                                                
SOILS          SOIL.SOL     C:\DSSAT48\SOIL\                                                                
WEATHERW       IUAM9702.WTH C:\DSSAT48\Weather\                                                             
OUTPUT         OVERVIEW
*SIMULATION CONTROL 
                   1     1     S 1997133  2150 1997 AT SORENSON FARM, I 
                   Y     Y     Y     N     N     N     N     N     M
                   M     M     E     R     S     L     R     1     G     R     2     D     0
                   R     R     R     R     R
                   N     Y     Y     1     Y     Y     Y     Y     N     N     Y     N     N
!AUTOMATIC MANAGEM  
                   -99     -99   40.  100.   30.   40.   10.
                 30.   50.  100. IB001 IB001  10.0 0.750
                 30.   50.   25. IB001 IB001
                100.     1   20.
                     0     -99  100.    0.
*EXP.DETAILS        
  1IUAM9702 SB SORENSON FARM (NEAR AMES), SOYBEAN POT. YIELD STUDY 1997    
*TREATMENTS         
  1 1 1 0 97-Soren STINE (MG3.6)   
*CULTIVARS          
   SB ST3660 STIN3660  MG 3.6
*FIELDS             
   IUAM0001 IUAM9702   0.0    0. IB000    0. 100.0 00000 L      202. IUBF970211-99.00 -99.0
    -99.0000000000  -99.0000000000   -99.000               1.0  100.   1.0 -99.0   -99   -99
*INITIAL CONDITIONS 
   SB    1997133   100     0  1.00  1.00 -99.0     0  0.00  0.00  100.    0.
      5. 0.350 0.010 0.010
     15. 0.350 0.010 0.010
     30. 0.350 0.010 0.010
     45. 0.350 0.010 0.010
     60. 0.360 0.010 0.010
     75. 0.360 0.010 0.010
     90. 0.360 0.010 0.010
    105. 0.330 0.010 0.010
    120. 0.330 0.010 0.010
    135. 0.330 0.010 0.010
    150. 0.330 0.010 0.010
    165. 0.330 0.010 0.010
    180. 0.330 0.010 0.010
    195. 0.330 0.010 0.010
    210. 0.330 0.010 0.010
*PLANTING DETAILS   
   1997133     -99  48.0  48.0     S     R   38.    0.   4.0  -99.  -99. -99.0 -99.0 -99.0
*IRRIGATION         
   1.000    0.    0.    0. GS000 IR001   0.0
*FERTILIZERS        
*RESIDUES           
*CHEMICALS          
*TILLAGE            
*ENVIRONMENT        
*HARVEST            
   1997285 GS000   -99   -99  100.    0.
*SOIL               
 IUBF970211  SOREN-  IA  L      202.   Ritchie 6/12/97  Loam                           
 -99         -99          -0.009  -0.099 unknown                                           
 -99    0.09   7.0  0.55   60.  0.50  0.92 IB001 IB001 IB001 -99  
    5.       0.163 0.340 0.465 1.000  79.0  1.31 2.030  26.0  36.0 -99.0  -9.0  6.40-99.00-99.00-99.00
   15.       0.163 0.340 0.438 1.000  79.0  1.39 2.030  26.0  36.0 -99.0  -9.0  6.40-99.00-99.00-99.00
   30.       0.173 0.350 0.451 1.000  79.0  1.35 2.030  27.0  37.0 -99.0  -9.0  6.40-99.00-99.00-99.00
   45.       0.193 0.350 0.458 1.000  79.0  1.33 2.030  27.0  37.0 -99.0  -9.0  6.40-99.00-99.00-99.00
   60.       0.193 0.350 0.451 1.000  79.0  1.35 0.440  27.0  37.0 -99.0  -9.0  6.70-99.00-99.00-99.00
   75.       0.173 0.350 0.458 1.000  79.0  1.33 0.440  29.0  36.0 -99.0  -9.0  6.70-99.00-99.00-99.00
   90.       0.173 0.350 0.458 1.000  79.0  1.33 0.440  29.0  36.0 -99.0  -9.0  6.70-99.00-99.00-99.00
  105.       0.163 0.330 0.434 0.850  79.0  1.40 0.150  20.0  28.0 -99.0  -9.0  7.90-99.00-99.00-99.00
  120.       0.163 0.330 0.410 0.700  79.0  1.47 0.150  20.0  28.0 -99.0  -9.0  7.90-99.00-99.00-99.00
  135.       0.163 0.330 0.396 0.550  79.0  1.51 0.150  18.0  31.0 -99.0  -9.0  7.90-99.00-99.00-99.00
  150.       0.163 0.330 0.403 0.400  79.0  1.49 0.150  18.0  31.0 -99.0  -9.0  7.90-99.00-99.00-99.00
  165.       0.163 0.330 0.403 0.300  79.0  1.49 0.150  18.0  31.0 -99.0  -9.0  7.90-99.00-99.00-99.00
  180.       0.163 0.330 0.403 0.200  79.0  1.49 0.150  18.0  31.0 -99.0  -9.0  7.90-99.00-99.00-99.00
  195.       0.163 0.330 0.403 0.100  79.0  1.49 0.150  18.0  31.0 -99.0  -9.0  7.90-99.00-99.00-99.00
  210.       0.163 0.330 0.403 0.000  79.0  1.49 0.150  18.0  31.0 -99.0  -9.0  7.90-99.00-99.00-99.00
                    
    5.-99.00 -99.0 -99.0 -99.0 -99.0 -99.0 -99.0 -99.0 -99.0 -99.0-99.00 -99.0 -99.0 -99.0 -99.0 -99.0  -99.  -99.
   15.-99.00 -99.0 -99.0 -99.0 -99.0 -99.0 -99.0 -99.0 -99.0 -99.0-99.00 -99.0 -99.0 -99.0 -99.0 -99.0  -99.  -99.
   30.-99.00 -99.0 -99.0 -99.0 -99.0 -99.0 -99.0 -99.0 -99.0 -99.0-99.00 -99.0 -99.0 -99.0 -99.0 -99.0  -99.  -99.
   45.-99.00 -99.0 -99.0 -99.0 -99.0 -99.0 -99.0 -99.0 -99.0 -99.0-99.00 -99.0 -99.0 -99.0 -99.0 -99.0  -99.  -99.
   60.-99.00 -99.0 -99.0 -99.0 -99.0 -99.0 -99.0 -99.0 -99.0 -99.0-99.00 -99.0 -99.0 -99.0 -99.0 -99.0  -99.  -99.
   75.-99.00 -99.0 -99.0 -99.0 -99.0 -99.0 -99.0 -99.0 -99.0 -99.0-99.00 -99.0 -99.0 -99.0 -99.0 -99.0  -99.  -99.
   90.-99.00 -99.0 -99.0 -99.0 -99.0 -99.0 -99.0 -99.0 -99.0 -99.0-99.00 -99.0 -99.0 -99.0 -99.0 -99.0  -99.  -99.
  105.-99.00 -99.0 -99.0 -99.0 -99.0 -99.0 -99.0 -99.0 -99.0 -99.0-99.00 -99.0 -99.0 -99.0 -99.0 -99.0  -99.  -99.
  120.-99.00 -99.0 -99.0 -99.0 -99.0 -99.0 -99.0 -99.0 -99.0 -99.0-99.00 -99.0 -99.0 -99.0 -99.0 -99.0  -99.  -99.
  135.-99.00 -99.0 -99.0 -99.0 -99.0 -99.0 -99.0 -99.0 -99.0 -99.0-99.00 -99.0 -99.0 -99.0 -99.0 -99.0  -99.  -99.
  150.-99.00 -99.0 -99.0 -99.0 -99.0 -99.0 -99.0 -99.0 -99.0 -99.0-99.00 -99.0 -99.0 -99.0 -99.0 -99.0  -99.  -99.
  165.-99.00 -99.0 -99.0 -99.0 -99.0 -99.0 -99.0 -99.0 -99.0 -99.0-99.00 -99.0 -99.0 -99.0 -99.0 -99.0  -99.  -99.
  180.-99.00 -99.0 -99.0 -99.0 -99.0 -99.0 -99.0 -99.0 -99.0 -99.0-99.00 -99.0 -99.0 -99.0 -99.0 -99.0  -99.  -99.
  195.-99.00 -99.0 -99.0 -99.0 -99.0 -99.0 -99.0 -99.0 -99.0 -99.0-99.00 -99.0 -99.0 -99.0 -99.0 -99.0  -99.  -99.
  210.-99.00 -99.0 -99.0 -99.0 -99.0 -99.0 -99.0 -99.0 -99.0 -99.0-99.00 -99.0 -99.0 -99.0 -99.0 -99.0  -99.  -99.
                    
    5.-99.00-99.00-99.00-99.00
   15.-99.00-99.00-99.00-99.00
   30.-99.00-99.00-99.00-99.00
   45.-99.00-99.00-99.00-99.00
   60.-99.00-99.00-99.00-99.00
   75.-99.00-99.00-99.00-99.00
   90.-99.00-99.00-99.00-99.00
  105.-99.00-99.00-99.00-99.00
  120.-99.00-99.00-99.00-99.00
  135.-99.00-99.00-99.00-99.00
  150.-99.00-99.00-99.00-99.00
  165.-99.00-99.00-99.00-99.00
  180.-99.00-99.00-99.00-99.00
  195.-99.00-99.00-99.00-99.00
  210.-99.00-99.00-99.00-99.00
*CULTIVAR           
ST3660 STIN3660  MG 3.6 SB0301 13.44 0.284 18.80  7.00 11.00 37.60 26.00 1.070 370.0 180.0  1.00 0.165 25.00  2.20  8.00  77.0 0.405 0.205
