*MODEL INPUT FILE            B     1     1     1   999     0
*FILES              
MODEL          PRFRM048
FILEX          UFON9701.BHX                                                                                 
FILEA          UFON9701.BHA                                                                                 
FILET          UFON9701.BHT                                                                                 
SPECIES        BHFRM048.SPE C:\DSSAT48\GENOTYPE\                                                            
ECOTYPE        BHFRM048.ECO C:\DSSAT48\GENOTYPE\                                                            
CULTIVAR       BHFRM048.CUL C:\DSSAT48\GENOTYPE\                                                            
PESTS          BHFRM048.PST C:\DSSAT48\PEST\                                                                
SOILS          SOIL.SOL     C:\DSSAT48\SOIL\                                                                
WEATHERW       UFON9601.WTH C:\DSSAT48\Weather\                                                             
OUTPUT         OVERVIEW
*SIMULATION CONTROL 
                   1     1     P 1996061  2150 BAHIA                    
                   Y     Y     N     N     N     N     N     N     M
                   M     M     E     R     S     L     R     1     P     R     2     D     0
                   R     N     R     N     R
                   N     Y     Y     1     Y     Y     Y     Y     N     Y     Y     N     N
!AUTOMATIC MANAGEM  
                   -99     -99   40.  100.   30.   40.   10.
                 30.   50.  100. IB001 IB001  10.0 0.000
                 30.   50.   25. IB001 IB001
                100.     1   20.
                     0     -99  100.    0.
*EXP.DETAILS        
  1UFON9701 BH ONA, POMONA FINE SAND, 2 YR SEQ.                            
*TREATMENTS         
  1 1 0 0 DRYLAND -    0 KG N/HA   
*CULTIVARS          
   BH UF0001 Pensacola       
*FIELDS             
   UFON0001 UFON9601   0.0    0. DR000    0. 100.0 00000 FSA    203. UFON780006-99.00 -99.0
      0.0000000000    0.0000000000     0.000               1.0  100.   1.0   0.0   -99   -99
*INITIAL CONDITIONS 
   G0    1996001     0     0  0.00  0.00 -99.0     0  0.64  0.00  100.   25.
      5. 0.165 0.500  1.30
     15. 0.144 0.290 0.600
     25. 0.135 0.200 0.300
     39. 0.048 0.200 0.100
     54. 0.048 0.200 0.100
     68. 0.048 0.200 0.100
     78. 0.099 0.200 0.600
     89. 0.099 0.200 0.600
    117. 0.084 0.200 0.300
    145. 0.124 0.200 0.300
    203. 0.212 0.200 0.100
*PLANTING DETAILS   
   1996061     -99 999.0 999.0     T     R    2.    0.   2.0 9999.   90.  15.0   1.0   0.0
*IRRIGATION         
   1.000    0.    0.    0. GS000 IR001   0.0
*FERTILIZERS        
   1996126 FE001 AP001    0.   78.  -99.  -99.  -99.  -99.   -99
   1996155 FE001 AP001    0.   78.  -99.  -99.  -99.  -99.   -99
   1996183 FE001 AP001    0.   78.  -99.  -99.  -99.  -99.   -99
   1996211 FE001 AP001    0.   78.  -99.  -99.  -99.  -99.   -99
   1996239 FE001 AP001    0.   78.  -99.  -99.  -99.  -99.   -99
   1996267 FE001 AP001    0.   78.  -99.  -99.  -99.  -99.   -99
   1997125 FE001 AP001    0.    0.  -99.  -99.  -99.  -99.   -99
*RESIDUES           
*CHEMICALS          
*TILLAGE            
*ENVIRONMENT        
*HARVEST            
   1998295 GS000     C   -99  100.  100.
*SOIL               
 UFON780006  S25-2-(1-7) FSA    203.   Pomona Fine Sand                                
 Ona REC     USA          27.400 -81.920 Ultic Haplaquods, sandy, siliceous, hyperthermic  
 BL     0.09   5.9  0.60   30.  1.00  0.92 IB001 IB001 IB001 -99  
    5.       0.027 0.110 0.471 1.000  21.0  1.32 1.020   0.6   5.5   0.0  -9.0  5.20-99.00  8.10-99.00
   15.       0.023 0.095 0.414 1.000  13.9  1.49 0.495   0.5   4.0   0.0  -9.0  4.99-99.00  2.64-99.00
   25.       0.021 0.089 0.389 1.000  10.9  1.56 0.270   0.5   3.4   0.0  -9.0  4.90-99.00  0.30-99.00
   39.       0.023 0.091 0.347 1.000  13.8  1.68 0.110   0.4   2.3   0.0  -9.0  4.90-99.00  0.00-99.00
   54.       0.023 0.091 0.347 1.000  13.8  1.68 0.110   0.4   2.3   0.0  -9.0  4.90-99.00  0.00-99.00
   68.       0.023 0.091 0.347 1.000  13.8  1.68 0.110   0.4   2.3   0.0  -9.0  4.90-99.00  0.00-99.00
   78.       0.020 0.087 0.307 0.800  3.20  1.78 0.620   1.6   5.4   0.0  -9.0  4.50-99.00  5.30-99.00
   89.       0.020 0.087 0.307 0.800  3.20  1.78 0.620   1.6   5.4   0.0  -9.0  4.50-99.00  5.30-99.00
  117.       0.025 0.097 0.313 0.800  4.70  1.77 0.350   1.1   2.9   0.0  -9.0  4.70-99.00  2.30-99.00
  145.       0.025 0.097 0.320 0.600  2.20  1.75 0.280   2.6   2.9   0.0  -9.0  5.00-99.00  2.50-99.00
  203.       0.175 0.261 0.336 0.600  2.20  1.75 0.130  16.6   3.3   0.0  -9.0  5.00-99.00 11.00-99.00
                    
    5.-99.00 -99.0 -99.0 -99.0 -99.0 -99.0 -99.0 -99.0 -99.0 -99.0-99.00 -99.0 -99.0 -99.0 -99.0 -99.0 0.900  -99.
   15.-99.00 -99.0 -99.0 -99.0 -99.0 -99.0 -99.0 -99.0 -99.0 -99.0-99.00 -99.0 -99.0 -99.0 -99.0 -99.0 0.438  -99.
   25.-99.00 -99.0 -99.0 -99.0 -99.0 -99.0 -99.0 -99.0 -99.0 -99.0-99.00 -99.0 -99.0 -99.0 -99.0 -99.0 0.240  -99.
   39.-99.00 -99.0 -99.0 -99.0 -99.0 -99.0 -99.0 -99.0 -99.0 -99.0-99.00 -99.0 -99.0 -99.0 -99.0 -99.0 0.100  -99.
   54.-99.00 -99.0 -99.0 -99.0 -99.0 -99.0 -99.0 -99.0 -99.0 -99.0-99.00 -99.0 -99.0 -99.0 -99.0 -99.0 0.100  -99.
   68.-99.00 -99.0 -99.0 -99.0 -99.0 -99.0 -99.0 -99.0 -99.0 -99.0-99.00 -99.0 -99.0 -99.0 -99.0 -99.0 0.100  -99.
   78.-99.00 -99.0 -99.0 -99.0 -99.0 -99.0 -99.0 -99.0 -99.0 -99.0-99.00 -99.0 -99.0 -99.0 -99.0 -99.0 0.550  -99.
   89.-99.00 -99.0 -99.0 -99.0 -99.0 -99.0 -99.0 -99.0 -99.0 -99.0-99.00 -99.0 -99.0 -99.0 -99.0 -99.0 0.550  -99.
  117.-99.00 -99.0 -99.0 -99.0 -99.0 -99.0 -99.0 -99.0 -99.0 -99.0-99.00 -99.0 -99.0 -99.0 -99.0 -99.0 0.310  -99.
  145.-99.00 -99.0 -99.0 -99.0 -99.0 -99.0 -99.0 -99.0 -99.0 -99.0-99.00 -99.0 -99.0 -99.0 -99.0 -99.0 0.250  -99.
  203.-99.00 -99.0 -99.0 -99.0 -99.0 -99.0 -99.0 -99.0 -99.0 -99.0-99.00 -99.0 -99.0 -99.0 -99.0 -99.0 0.110  -99.
                    
    5.-99.00-99.00-99.00-99.00
   15.-99.00-99.00-99.00-99.00
   25.-99.00-99.00-99.00-99.00
   39.-99.00-99.00-99.00-99.00
   54.-99.00-99.00-99.00-99.00
   68.-99.00-99.00-99.00-99.00
   78.-99.00-99.00-99.00-99.00
   89.-99.00-99.00-99.00-99.00
  117.-99.00-99.00-99.00-99.00
  145.-99.00-99.00-99.00-99.00
  203.-99.00-99.00-99.00-99.00
*CULTIVAR           
UF0001 Pensacola        G00001 12.50 0.200 99.00 10.00 18.00 33.00 25.00 1.800 180.0   2.0  0.01 0.020 15.00  2.05 20.00  78.0 0.115 0.035
